ODB Name,Step,Frame,Part Instance Name,    Node Label,X,Y,Z,Section Name,Material Name,Section Point,       S-Mises,S-Max. In-Plane Principal (Abs),S-Max. Principal (Abs)
C:/temp/Job-39.odb,Step-1,Increment      1: Step Time =    1.000,"P-39-1",             1,       85.1204,       168.400,            0.,NA,NA,"",   4.54024E+06,   4.57243E+06,   4.57243E+06
C:/temp/Job-39.odb,Step-1,Increment      1: Step Time =    1.000,"P-39-1",             2,       70.9210,       163.674,            0.,NA,NA,"",   1.21845E+06,   1.10381E+06,   1.10381E+06
C:/temp/Job-39.odb,Step-1,Increment      1: Step Time =    1.000,"P-39-1",             3,       58.0506,       156.038,            0.,NA,NA,"",   1.56829E+06,  -1.54894E+06,  -1.54894E+06
C:/temp/Job-39.odb,Step-1,Increment      1: Step Time =    1.000,"P-39-1",             4,       47.0975,       145.840,            0.,NA,NA,"",   2.32054E+06,  -2.34840E+06,  -2.34840E+06
C:/temp/Job-39.odb,Step-1,Increment      1: Step Time =    1.000,"P-39-1",             5,       38.5625,       133.547,            0.,NA,NA,"",   1.96683E+06,  -1.99015E+06,  -1.99015E+06
C:/temp/Job-39.odb,Step-1,Increment      1: Step Time =    1.000,"P-39-1",             6,       32.8355,       119.721,            0.,NA,NA,"",    1.1876E+06,  -1.20265E+06,  -1.20265E+06
C:/temp/Job-39.odb,Step-1,Increment      1: Step Time =    1.000,"P-39-1",             7,       30.1784,       104.994,            0.,NA,NA,"",   731.610E+03,  -746.125E+03,  -746.125E+03
C:/temp/Job-39.odb,Step-1,Increment      1: Step Time =    1.000,"P-39-1",             8,       30.1784,       95.0063,            0.,NA,NA,"",   731.750E+03,  -749.239E+03,  -749.239E+03
C:/temp/Job-39.odb,Step-1,Increment      1: Step Time =    1.000,"P-39-1",             9,       32.8355,       80.2787,            0.,NA,NA,"",   1.16651E+06,  -1.18405E+06,  -1.18405E+06
C:/temp/Job-39.odb,Step-1,Increment      1: Step Time =    1.000,"P-39-1",            10,       38.5625,       66.4526,            0.,NA,NA,"",   1.95150E+06,  -1.97741E+06,  -1.97741E+06
C:/temp/Job-39.odb,Step-1,Increment      1: Step Time =    1.000,"P-39-1",            11,       47.0975,       54.1597,            0.,NA,NA,"",   2.35231E+06,  -2.37668E+06,  -2.37668E+06
C:/temp/Job-39.odb,Step-1,Increment      1: Step Time =    1.000,"P-39-1",            12,       58.0506,       43.9621,            0.,NA,NA,"",   1.62227E+06,  -1.61752E+06,  -1.61752E+06
C:/temp/Job-39.odb,Step-1,Increment      1: Step Time =    1.000,"P-39-1",            13,       70.9210,       36.3258,            0.,NA,NA,"",   1.05557E+06,   960.745E+03,   960.745E+03
C:/temp/Job-39.odb,Step-1,Increment      1: Step Time =    1.000,"P-39-1",            14,       85.1204,       31.5997,            0.,NA,NA,"",   4.44198E+06,   4.47610E+06,   4.47610E+06
C:/temp/Job-39.odb,Step-1,Increment      1: Step Time =    1.000,"P-39-1",            15,          100.,           30.,            0.,NA,NA,"",   7.58364E+06,   7.66656E+06,   7.66656E+06
C:/temp/Job-39.odb,Step-1,Increment      1: Step Time =    1.000,"P-39-1",            16,       114.880,       31.5997,            0.,NA,NA,"",   8.50773E+06,     8.638E+06,     8.638E+06
C:/temp/Job-39.odb,Step-1,Increment      1: Step Time =    1.000,"P-39-1",            17,       129.079,       36.3258,            0.,NA,NA,"",   7.30865E+06,   7.39316E+06,   7.39316E+06
C:/temp/Job-39.odb,Step-1,Increment      1: Step Time =    1.000,"P-39-1",            18,       141.949,       43.9621,            0.,NA,NA,"",   4.95822E+06,   5.01946E+06,   5.01946E+06
C:/temp/Job-39.odb,Step-1,Increment      1: Step Time =    1.000,"P-39-1",            19,       152.902,       54.1597,            0.,NA,NA,"",   2.60288E+06,   2.61673E+06,   2.61673E+06
C:/temp/Job-39.odb,Step-1,Increment      1: Step Time =    1.000,"P-39-1",            20,       161.438,       66.4526,            0.,NA,NA,"",   852.145E+03,  -44.4115E+03,  -44.4115E+03
C:/temp/Job-39.odb,Step-1,Increment      1: Step Time =    1.000,"P-39-1",            21,       167.165,       80.2787,            0.,NA,NA,"",   3.15371E+06,  -3.16752E+06,  -3.16752E+06
C:/temp/Job-39.odb,Step-1,Increment      1: Step Time =    1.000,"P-39-1",            22,       169.822,       95.0063,            0.,NA,NA,"",   5.22661E+06,  -5.27094E+06,  -5.27094E+06
C:/temp/Job-39.odb,Step-1,Increment      1: Step Time =    1.000,"P-39-1",            23,       169.822,       104.994,            0.,NA,NA,"",   5.17890E+06,  -5.22335E+06,  -5.22335E+06
C:/temp/Job-39.odb,Step-1,Increment      1: Step Time =    1.000,"P-39-1",            24,       167.165,       119.721,            0.,NA,NA,"",   3.07149E+06,  -3.08722E+06,  -3.08722E+06
C:/temp/Job-39.odb,Step-1,Increment      1: Step Time =    1.000,"P-39-1",            25,       161.438,       133.547,            0.,NA,NA,"",   787.851E+03,  -23.9282E+03,  -23.9282E+03
C:/temp/Job-39.odb,Step-1,Increment      1: Step Time =    1.000,"P-39-1",            26,       152.902,       145.840,            0.,NA,NA,"",   2.62886E+06,   2.64676E+06,   2.64676E+06
C:/temp/Job-39.odb,Step-1,Increment      1: Step Time =    1.000,"P-39-1",            27,       141.949,       156.038,            0.,NA,NA,"",   4.96552E+06,   5.03270E+06,   5.03270E+06
C:/temp/Job-39.odb,Step-1,Increment      1: Step Time =    1.000,"P-39-1",            28,       129.079,       163.674,            0.,NA,NA,"",   7.27408E+06,   7.36602E+06,   7.36602E+06
C:/temp/Job-39.odb,Step-1,Increment      1: Step Time =    1.000,"P-39-1",            29,       114.880,       168.400,            0.,NA,NA,"",   8.60750E+06,   8.72265E+06,   8.72265E+06
C:/temp/Job-39.odb,Step-1,Increment      1: Step Time =    1.000,"P-39-1",            30,          100.,          170.,            0.,NA,NA,"",   7.68268E+06,   7.76112E+06,   7.76112E+06
C:/temp/Job-39.odb,Step-1,Increment      1: Step Time =    1.000,"P-39-1",            31,          190.,            0.,            0.,NA,NA,"",   931.375E+03,   925.785E+03,   925.785E+03
C:/temp/Job-39.odb,Step-1,Increment      1: Step Time =    1.000,"P-39-1",            32,          180.,            0.,            0.,NA,NA,"",   753.648E+03,   749.381E+03,   749.381E+03
C:/temp/Job-39.odb,Step-1,Increment      1: Step Time =    1.000,"P-39-1",            33,          170.,            0.,            0.,NA,NA,"",   497.692E+03,   489.303E+03,   489.303E+03
C:/temp/Job-39.odb,Step-1,Increment      1: Step Time =    1.000,"P-39-1",            34,          160.,            0.,            0.,NA,NA,"",   224.399E+03,   59.0705E+03,   59.0705E+03
C:/temp/Job-39.odb,Step-1,Increment      1: Step Time =    1.000,"P-39-1",            35,          150.,            0.,            0.,NA,NA,"",   459.368E+03,  -441.588E+03,  -441.588E+03
C:/temp/Job-39.odb,Step-1,Increment      1: Step Time =    1.000,"P-39-1",            36,          140.,            0.,            0.,NA,NA,"",   969.242E+03,  -960.071E+03,  -960.071E+03
C:/temp/Job-39.odb,Step-1,Increment      1: Step Time =    1.000,"P-39-1",            37,          130.,            0.,            0.,NA,NA,"",   1.45193E+06,  -1.43906E+06,  -1.43906E+06
C:/temp/Job-39.odb,Step-1,Increment      1: Step Time =    1.000,"P-39-1",            38,          120.,            0.,            0.,NA,NA,"",   1.62439E+06,  -1.61331E+06,  -1.61331E+06
C:/temp/Job-39.odb,Step-1,Increment      1: Step Time =    1.000,"P-39-1",            39,          110.,            0.,            0.,NA,NA,"",   1.37418E+06,  -1.35012E+06,  -1.35012E+06
C:/temp/Job-39.odb,Step-1,Increment      1: Step Time =    1.000,"P-39-1",            40,          100.,            0.,            0.,NA,NA,"",   716.754E+03,  -594.331E+03,  -594.331E+03
C:/temp/Job-39.odb,Step-1,Increment      1: Step Time =    1.000,"P-39-1",            41,           90.,            0.,            0.,NA,NA,"",   1.04704E+06,   972.981E+03,   972.981E+03
C:/temp/Job-39.odb,Step-1,Increment      1: Step Time =    1.000,"P-39-1",            42,           80.,            0.,            0.,NA,NA,"",   2.30644E+06,   2.27253E+06,   2.27253E+06
C:/temp/Job-39.odb,Step-1,Increment      1: Step Time =    1.000,"P-39-1",            43,           70.,            0.,            0.,NA,NA,"",   3.52327E+06,   3.50359E+06,   3.50359E+06
C:/temp/Job-39.odb,Step-1,Increment      1: Step Time =    1.000,"P-39-1",            44,           60.,            0.,            0.,NA,NA,"",   4.35802E+06,   4.34505E+06,   4.34505E+06
C:/temp/Job-39.odb,Step-1,Increment      1: Step Time =    1.000,"P-39-1",            45,           50.,            0.,            0.,NA,NA,"",   4.80617E+06,   4.79737E+06,   4.79737E+06
C:/temp/Job-39.odb,Step-1,Increment      1: Step Time =    1.000,"P-39-1",            46,           40.,            0.,            0.,NA,NA,"",   4.96371E+06,   4.95671E+06,   4.95671E+06
C:/temp/Job-39.odb,Step-1,Increment      1: Step Time =    1.000,"P-39-1",            47,           30.,            0.,            0.,NA,NA,"",   4.91685E+06,   4.91189E+06,   4.91189E+06
C:/temp/Job-39.odb,Step-1,Increment      1: Step Time =    1.000,"P-39-1",            48,           20.,            0.,            0.,NA,NA,"",   4.77956E+06,   4.77822E+06,   4.77822E+06
C:/temp/Job-39.odb,Step-1,Increment      1: Step Time =    1.000,"P-39-1",            49,           10.,            0.,            0.,NA,NA,"",   4.73261E+06,   4.73339E+06,   4.73339E+06
C:/temp/Job-39.odb,Step-1,Increment      1: Step Time =    1.000,"P-39-1",            50,          200.,            0.,            0.,NA,NA,"",   996.081E+03,   992.010E+03,   992.010E+03
C:/temp/Job-39.odb,Step-1,Increment      1: Step Time =    1.000,"P-39-1",            51,            0.,            0.,            0.,NA,NA,"",   5.14481E+06,   5.40610E+06,   5.40610E+06
C:/temp/Job-39.odb,Step-1,Increment      1: Step Time =    1.000,"P-39-1",            52,          200.,          190.,            0.,NA,NA,"",   1.03390E+06,   995.712E+03,   995.712E+03
C:/temp/Job-39.odb,Step-1,Increment      1: Step Time =    1.000,"P-39-1",            53,          200.,          180.,            0.,NA,NA,"",   1.11589E+06,   1.00994E+06,   1.00994E+06
C:/temp/Job-39.odb,Step-1,Increment      1: Step Time =    1.000,"P-39-1",            54,          200.,          170.,            0.,NA,NA,"",   1.11750E+06,   1.02348E+06,   1.02348E+06
C:/temp/Job-39.odb,Step-1,Increment      1: Step Time =    1.000,"P-39-1",            55,          200.,          160.,            0.,NA,NA,"",   986.121E+03,   1.03957E+06,   1.03957E+06
C:/temp/Job-39.odb,Step-1,Increment      1: Step Time =    1.000,"P-39-1",            56,          200.,          150.,            0.,NA,NA,"",   1.03941E+06,   1.19189E+06,   1.19189E+06
C:/temp/Job-39.odb,Step-1,Increment      1: Step Time =    1.000,"P-39-1",            57,          200.,          140.,            0.,NA,NA,"",   1.80136E+06,   2.07105E+06,   2.07105E+06
C:/temp/Job-39.odb,Step-1,Increment      1: Step Time =    1.000,"P-39-1",            58,          200.,          130.,            0.,NA,NA,"",   3.05224E+06,   3.41467E+06,   3.41467E+06
C:/temp/Job-39.odb,Step-1,Increment      1: Step Time =    1.000,"P-39-1",            59,          200.,          120.,            0.,NA,NA,"",   4.36945E+06,   4.76857E+06,   4.76857E+06
C:/temp/Job-39.odb,Step-1,Increment      1: Step Time =    1.000,"P-39-1",            60,          200.,          110.,            0.,NA,NA,"",   5.34147E+06,   5.75264E+06,   5.75264E+06
C:/temp/Job-39.odb,Step-1,Increment      1: Step Time =    1.000,"P-39-1",            61,          200.,          100.,            0.,NA,NA,"",   5.75875E+06,   6.16947E+06,   6.16947E+06
C:/temp/Job-39.odb,Step-1,Increment      1: Step Time =    1.000,"P-39-1",            62,          200.,           90.,            0.,NA,NA,"",   5.38303E+06,   5.79898E+06,   5.79898E+06
C:/temp/Job-39.odb,Step-1,Increment      1: Step Time =    1.000,"P-39-1",            63,          200.,           80.,            0.,NA,NA,"",   4.40151E+06,   4.79991E+06,   4.79991E+06
C:/temp/Job-39.odb,Step-1,Increment      1: Step Time =    1.000,"P-39-1",            64,          200.,           70.,            0.,NA,NA,"",   3.05028E+06,   3.41275E+06,   3.41275E+06
C:/temp/Job-39.odb,Step-1,Increment      1: Step Time =    1.000,"P-39-1",            65,          200.,           60.,            0.,NA,NA,"",   1.80254E+06,   2.06784E+06,   2.06784E+06
C:/temp/Job-39.odb,Step-1,Increment      1: Step Time =    1.000,"P-39-1",            66,          200.,           50.,            0.,NA,NA,"",   1.09259E+06,   1.25970E+06,   1.25970E+06
C:/temp/Job-39.odb,Step-1,Increment      1: Step Time =    1.000,"P-39-1",            67,          200.,           40.,            0.,NA,NA,"",   993.945E+03,   1.03524E+06,   1.03524E+06
C:/temp/Job-39.odb,Step-1,Increment      1: Step Time =    1.000,"P-39-1",            68,          200.,           30.,            0.,NA,NA,"",   1.12375E+06,   1.01609E+06,   1.01609E+06
C:/temp/Job-39.odb,Step-1,Increment      1: Step Time =    1.000,"P-39-1",            69,          200.,           20.,            0.,NA,NA,"",   1.11775E+06,   1.00777E+06,   1.00777E+06
C:/temp/Job-39.odb,Step-1,Increment      1: Step Time =    1.000,"P-39-1",            70,          200.,           10.,            0.,NA,NA,"",   1.03357E+06,   995.982E+03,   995.982E+03
C:/temp/Job-39.odb,Step-1,Increment      1: Step Time =    1.000,"P-39-1",            71,          200.,          200.,            0.,NA,NA,"",   996.126E+03,   992.037E+03,   992.037E+03
C:/temp/Job-39.odb,Step-1,Increment      1: Step Time =    1.000,"P-39-1",            72,           10.,          200.,            0.,NA,NA,"",   4.73416E+06,   4.73402E+06,   4.73402E+06
C:/temp/Job-39.odb,Step-1,Increment      1: Step Time =    1.000,"P-39-1",            73,           20.,          200.,            0.,NA,NA,"",   4.78405E+06,   4.78299E+06,   4.78299E+06
C:/temp/Job-39.odb,Step-1,Increment      1: Step Time =    1.000,"P-39-1",            74,           30.,          200.,            0.,NA,NA,"",   4.91605E+06,   4.91344E+06,   4.91344E+06
C:/temp/Job-39.odb,Step-1,Increment      1: Step Time =    1.000,"P-39-1",            75,           40.,          200.,            0.,NA,NA,"",   4.97427E+06,   4.96595E+06,   4.96595E+06
C:/temp/Job-39.odb,Step-1,Increment      1: Step Time =    1.000,"P-39-1",            76,           50.,          200.,            0.,NA,NA,"",   4.82523E+06,   4.81560E+06,   4.81560E+06
C:/temp/Job-39.odb,Step-1,Increment      1: Step Time =    1.000,"P-39-1",            77,           60.,          200.,            0.,NA,NA,"",   4.36274E+06,   4.35039E+06,   4.35039E+06
C:/temp/Job-39.odb,Step-1,Increment      1: Step Time =    1.000,"P-39-1",            78,           70.,          200.,            0.,NA,NA,"",   3.53559E+06,   3.51524E+06,   3.51524E+06
C:/temp/Job-39.odb,Step-1,Increment      1: Step Time =    1.000,"P-39-1",            79,           80.,          200.,            0.,NA,NA,"",   2.36007E+06,   2.31835E+06,   2.31835E+06
C:/temp/Job-39.odb,Step-1,Increment      1: Step Time =    1.000,"P-39-1",            80,           90.,          200.,            0.,NA,NA,"",   1.14404E+06,   1.05537E+06,   1.05537E+06
C:/temp/Job-39.odb,Step-1,Increment      1: Step Time =    1.000,"P-39-1",            81,          100.,          200.,            0.,NA,NA,"",   682.367E+03,  -529.337E+03,  -529.337E+03
C:/temp/Job-39.odb,Step-1,Increment      1: Step Time =    1.000,"P-39-1",            82,          110.,          200.,            0.,NA,NA,"",   1.27839E+06,  -1.23531E+06,  -1.23531E+06
C:/temp/Job-39.odb,Step-1,Increment      1: Step Time =    1.000,"P-39-1",            83,          120.,          200.,            0.,NA,NA,"",   1.57616E+06,  -1.56156E+06,  -1.56156E+06
C:/temp/Job-39.odb,Step-1,Increment      1: Step Time =    1.000,"P-39-1",            84,          130.,          200.,            0.,NA,NA,"",   1.42521E+06,  -1.41807E+06,  -1.41807E+06
C:/temp/Job-39.odb,Step-1,Increment      1: Step Time =    1.000,"P-39-1",            85,          140.,          200.,            0.,NA,NA,"",   993.932E+03,  -984.536E+03,  -984.536E+03
C:/temp/Job-39.odb,Step-1,Increment      1: Step Time =    1.000,"P-39-1",            86,          150.,          200.,            0.,NA,NA,"",   471.330E+03,  -453.593E+03,  -453.593E+03
C:/temp/Job-39.odb,Step-1,Increment      1: Step Time =    1.000,"P-39-1",            87,          160.,          200.,            0.,NA,NA,"",   229.452E+03,   54.1194E+03,   54.1194E+03
C:/temp/Job-39.odb,Step-1,Increment      1: Step Time =    1.000,"P-39-1",            88,          170.,          200.,            0.,NA,NA,"",   496.854E+03,   487.344E+03,   487.344E+03
C:/temp/Job-39.odb,Step-1,Increment      1: Step Time =    1.000,"P-39-1",            89,          180.,          200.,            0.,NA,NA,"",   753.084E+03,   748.505E+03,   748.505E+03
C:/temp/Job-39.odb,Step-1,Increment      1: Step Time =    1.000,"P-39-1",            90,          190.,          200.,            0.,NA,NA,"",   932.185E+03,   926.794E+03,   926.794E+03
C:/temp/Job-39.odb,Step-1,Increment      1: Step Time =    1.000,"P-39-1",            91,            0.,          200.,            0.,NA,NA,"",   5.14284E+06,   5.40374E+06,   5.40374E+06
C:/temp/Job-39.odb,Step-1,Increment      1: Step Time =    1.000,"P-39-1",            92,            0.,           10.,            0.,NA,NA,"",   3.53565E+06,   3.89621E+06,   3.89621E+06
C:/temp/Job-39.odb,Step-1,Increment      1: Step Time =    1.000,"P-39-1",            93,            0.,           20.,            0.,NA,NA,"",   2.45125E+06,   2.73555E+06,   2.73555E+06
C:/temp/Job-39.odb,Step-1,Increment      1: Step Time =    1.000,"P-39-1",            94,            0.,           30.,            0.,NA,NA,"",   1.54168E+06,   1.72734E+06,   1.72734E+06
C:/temp/Job-39.odb,Step-1,Increment      1: Step Time =    1.000,"P-39-1",            95,            0.,           40.,            0.,NA,NA,"",   758.991E+03,   852.717E+03,   852.717E+03
C:/temp/Job-39.odb,Step-1,Increment      1: Step Time =    1.000,"P-39-1",            96,            0.,           50.,            0.,NA,NA,"",   175.781E+03,   195.248E+03,   195.248E+03
C:/temp/Job-39.odb,Step-1,Increment      1: Step Time =    1.000,"P-39-1",            97,            0.,           60.,            0.,NA,NA,"",   291.025E+03,  -302.543E+03,  -302.543E+03
C:/temp/Job-39.odb,Step-1,Increment      1: Step Time =    1.000,"P-39-1",            98,            0.,           70.,            0.,NA,NA,"",   502.300E+03,  -537.442E+03,  -537.442E+03
C:/temp/Job-39.odb,Step-1,Increment      1: Step Time =    1.000,"P-39-1",            99,            0.,           80.,            0.,NA,NA,"",   527.583E+03,  -574.287E+03,  -574.287E+03
C:/temp/Job-39.odb,Step-1,Increment      1: Step Time =    1.000,"P-39-1",           100,            0.,           90.,            0.,NA,NA,"",   434.584E+03,  -492.473E+03,  -492.473E+03
C:/temp/Job-39.odb,Step-1,Increment      1: Step Time =    1.000,"P-39-1",           101,            0.,          100.,            0.,NA,NA,"",   369.911E+03,  -426.950E+03,  -426.950E+03
C:/temp/Job-39.odb,Step-1,Increment      1: Step Time =    1.000,"P-39-1",           102,            0.,          110.,            0.,NA,NA,"",   435.132E+03,  -492.890E+03,  -492.890E+03
C:/temp/Job-39.odb,Step-1,Increment      1: Step Time =    1.000,"P-39-1",           103,            0.,          120.,            0.,NA,NA,"",   524.200E+03,  -571.825E+03,  -571.825E+03
C:/temp/Job-39.odb,Step-1,Increment      1: Step Time =    1.000,"P-39-1",           104,            0.,          130.,            0.,NA,NA,"",   495.809E+03,  -528.902E+03,  -528.902E+03
C:/temp/Job-39.odb,Step-1,Increment      1: Step Time =    1.000,"P-39-1",           105,            0.,          140.,            0.,NA,NA,"",   282.060E+03,  -292.406E+03,  -292.406E+03
C:/temp/Job-39.odb,Step-1,Increment      1: Step Time =    1.000,"P-39-1",           106,            0.,          150.,            0.,NA,NA,"",   187.511E+03,   207.225E+03,   207.225E+03
C:/temp/Job-39.odb,Step-1,Increment      1: Step Time =    1.000,"P-39-1",           107,            0.,          160.,            0.,NA,NA,"",   757.282E+03,   850.640E+03,   850.640E+03
C:/temp/Job-39.odb,Step-1,Increment      1: Step Time =    1.000,"P-39-1",           108,            0.,          170.,            0.,NA,NA,"",   1.49970E+06,   1.67986E+06,   1.67986E+06
C:/temp/Job-39.odb,Step-1,Increment      1: Step Time =    1.000,"P-39-1",           109,            0.,          180.,            0.,NA,NA,"",   2.43099E+06,   2.70896E+06,   2.70896E+06
C:/temp/Job-39.odb,Step-1,Increment      1: Step Time =    1.000,"P-39-1",           110,            0.,          190.,            0.,NA,NA,"",   3.52780E+06,   3.88333E+06,   3.88333E+06
C:/temp/Job-39.odb,Step-1,Increment      1: Step Time =    1.000,"P-39-1",           111,       178.490,       104.916,            0.,NA,NA,"",   1.93406E+06,  -1.90862E+06,  -1.90862E+06
C:/temp/Job-39.odb,Step-1,Increment      1: Step Time =    1.000,"P-39-1",           112,       19.2337,       95.5253,            0.,NA,NA,"",   544.064E+03,  -606.195E+03,  -606.195E+03
C:/temp/Job-39.odb,Step-1,Increment      1: Step Time =    1.000,"P-39-1",           113,       189.726,       179.793,            0.,NA,NA,"",   1.13045E+06,   1.08239E+06,   1.08239E+06
C:/temp/Job-39.odb,Step-1,Increment      1: Step Time =    1.000,"P-39-1",           114,       179.842,       178.644,            0.,NA,NA,"",   1.32308E+06,   1.27378E+06,   1.27378E+06
C:/temp/Job-39.odb,Step-1,Increment      1: Step Time =    1.000,"P-39-1",           115,       164.017,       177.443,            0.,NA,NA,"",   1.87245E+06,   1.78469E+06,   1.78469E+06
C:/temp/Job-39.odb,Step-1,Increment      1: Step Time =    1.000,"P-39-1",           116,       154.752,       180.084,            0.,NA,NA,"",   1.96254E+06,   1.91257E+06,   1.91257E+06
C:/temp/Job-39.odb,Step-1,Increment      1: Step Time =    1.000,"P-39-1",           117,       145.135,       182.826,            0.,NA,NA,"",   1.94051E+06,   1.94010E+06,   1.94010E+06
C:/temp/Job-39.odb,Step-1,Increment      1: Step Time =    1.000,"P-39-1",           118,       135.553,       179.327,            0.,NA,NA,"",   2.87740E+06,   3.01325E+06,   3.01325E+06
C:/temp/Job-39.odb,Step-1,Increment      1: Step Time =    1.000,"P-39-1",           119,       129.054,       177.467,            0.,NA,NA,"",   3.89964E+06,   4.10817E+06,   4.10817E+06
C:/temp/Job-39.odb,Step-1,Increment      1: Step Time =    1.000,"P-39-1",           120,       116.215,       179.345,            0.,NA,NA,"",   4.48052E+06,   4.69996E+06,   4.69996E+06
C:/temp/Job-39.odb,Step-1,Increment      1: Step Time =    1.000,"P-39-1",           121,       105.018,       178.809,            0.,NA,NA,"",   5.19885E+06,   5.35740E+06,   5.35740E+06
C:/temp/Job-39.odb,Step-1,Increment      1: Step Time =    1.000,"P-39-1",           122,       94.8147,       178.971,            0.,NA,NA,"",   4.87155E+06,   4.90412E+06,   4.90412E+06
C:/temp/Job-39.odb,Step-1,Increment      1: Step Time =    1.000,"P-39-1",           123,       83.5457,       179.102,            0.,NA,NA,"",   4.09544E+06,   3.92873E+06,   3.92873E+06
C:/temp/Job-39.odb,Step-1,Increment      1: Step Time =    1.000,"P-39-1",           124,       71.2490,       178.593,            0.,NA,NA,"",   3.55682E+06,   3.19197E+06,   3.19197E+06
C:/temp/Job-39.odb,Step-1,Increment      1: Step Time =    1.000,"P-39-1",           125,       60.4030,       181.052,            0.,NA,NA,"",   3.37342E+06,   3.04036E+06,   3.04036E+06
C:/temp/Job-39.odb,Step-1,Increment      1: Step Time =    1.000,"P-39-1",           126,       51.8274,       181.294,            0.,NA,NA,"",   3.23373E+06,   2.97083E+06,   2.97083E+06
C:/temp/Job-39.odb,Step-1,Increment      1: Step Time =    1.000,"P-39-1",           127,       42.4609,       175.693,            0.,NA,NA,"",   2.53455E+06,   2.31337E+06,   2.31337E+06
C:/temp/Job-39.odb,Step-1,Increment      1: Step Time =    1.000,"P-39-1",           128,       33.7120,       179.067,            0.,NA,NA,"",   2.77977E+06,   2.69733E+06,   2.69733E+06
C:/temp/Job-39.odb,Step-1,Increment      1: Step Time =    1.000,"P-39-1",           129,       24.3110,       177.558,            0.,NA,NA,"",   2.62593E+06,   2.64041E+06,   2.64041E+06
C:/temp/Job-39.odb,Step-1,Increment      1: Step Time =    1.000,"P-39-1",           130,       11.3881,       178.039,            0.,NA,NA,"",   2.47044E+06,   2.62912E+06,   2.62912E+06
C:/temp/Job-39.odb,Step-1,Increment      1: Step Time =    1.000,"P-39-1",           131,       9.29159,       168.151,            0.,NA,NA,"",   1.38901E+06,   1.53412E+06,   1.53412E+06
C:/temp/Job-39.odb,Step-1,Increment      1: Step Time =    1.000,"P-39-1",           132,       19.8241,       169.538,            0.,NA,NA,"",   1.63346E+06,   1.69034E+06,   1.69034E+06
C:/temp/Job-39.odb,Step-1,Increment      1: Step Time =    1.000,"P-39-1",           133,       31.3949,       172.165,            0.,NA,NA,"",   2.06956E+06,   1.98585E+06,   1.98585E+06
C:/temp/Job-39.odb,Step-1,Increment      1: Step Time =    1.000,"P-39-1",           134,       43.3052,       170.754,            0.,NA,NA,"",   2.03110E+06,   1.71381E+06,   1.71381E+06
C:/temp/Job-39.odb,Step-1,Increment      1: Step Time =    1.000,"P-39-1",           135,       50.5527,       171.121,            0.,NA,NA,"",   2.20465E+06,   1.77056E+06,   1.77056E+06
C:/temp/Job-39.odb,Step-1,Increment      1: Step Time =    1.000,"P-39-1",           136,       62.3885,       170.696,            0.,NA,NA,"",   2.31936E+06,   1.85636E+06,   1.85636E+06
C:/temp/Job-39.odb,Step-1,Increment      1: Step Time =    1.000,"P-39-1",           137,       137.339,       169.156,            0.,NA,NA,"",   4.67837E+06,   4.84538E+06,   4.84538E+06
C:/temp/Job-39.odb,Step-1,Increment      1: Step Time =    1.000,"P-39-1",           138,       147.862,       169.470,            0.,NA,NA,"",   3.26288E+06,   3.33840E+06,   3.33840E+06
C:/temp/Job-39.odb,Step-1,Increment      1: Step Time =    1.000,"P-39-1",           139,       156.783,       169.039,            0.,NA,NA,"",   2.65946E+06,   2.62089E+06,   2.62089E+06
C:/temp/Job-39.odb,Step-1,Increment      1: Step Time =    1.000,"P-39-1",           140,       171.090,       168.043,            0.,NA,NA,"",   2.07317E+06,   1.94956E+06,   1.94956E+06
C:/temp/Job-39.odb,Step-1,Increment      1: Step Time =    1.000,"P-39-1",           141,       180.065,       169.117,            0.,NA,NA,"",   1.60369E+06,   1.53352E+06,   1.53352E+06
C:/temp/Job-39.odb,Step-1,Increment      1: Step Time =    1.000,"P-39-1",           142,       189.886,       169.686,            0.,NA,NA,"",   1.20601E+06,   1.17908E+06,   1.17908E+06
C:/temp/Job-39.odb,Step-1,Increment      1: Step Time =    1.000,"P-39-1",           143,       148.795,       156.343,            0.,NA,NA,"",   3.86821E+06,   3.92839E+06,   3.92839E+06
C:/temp/Job-39.odb,Step-1,Increment      1: Step Time =    1.000,"P-39-1",           144,       159.064,       158.646,            0.,NA,NA,"",   2.87908E+06,   2.79556E+06,   2.79556E+06
C:/temp/Job-39.odb,Step-1,Increment      1: Step Time =    1.000,"P-39-1",           145,       165.981,       158.233,            0.,NA,NA,"",   2.62889E+06,   2.43058E+06,   2.43058E+06
C:/temp/Job-39.odb,Step-1,Increment      1: Step Time =    1.000,"P-39-1",           146,       176.596,       158.946,            0.,NA,NA,"",   2.18362E+06,   1.99507E+06,   1.99507E+06
C:/temp/Job-39.odb,Step-1,Increment      1: Step Time =    1.000,"P-39-1",           147,       189.535,       159.156,            0.,NA,NA,"",   1.40355E+06,   1.40852E+06,   1.40852E+06
C:/temp/Job-39.odb,Step-1,Increment      1: Step Time =    1.000,"P-39-1",           148,       159.026,       144.631,            0.,NA,NA,"",   2.04034E+06,   1.97043E+06,   1.97043E+06
C:/temp/Job-39.odb,Step-1,Increment      1: Step Time =    1.000,"P-39-1",           149,       168.686,       146.350,            0.,NA,NA,"",   2.51424E+06,   2.11215E+06,   2.11215E+06
C:/temp/Job-39.odb,Step-1,Increment      1: Step Time =    1.000,"P-39-1",           150,       181.548,       144.879,            0.,NA,NA,"",   2.46518E+06,   2.17115E+06,   2.17115E+06
C:/temp/Job-39.odb,Step-1,Increment      1: Step Time =    1.000,"P-39-1",           151,       187.336,       148.946,            0.,NA,NA,"",   1.93711E+06,   1.88508E+06,   1.88508E+06
C:/temp/Job-39.odb,Step-1,Increment      1: Step Time =    1.000,"P-39-1",           152,       167.916,       138.806,            0.,NA,NA,"",   2.02414E+06,   1.48780E+06,   1.48780E+06
C:/temp/Job-39.odb,Step-1,Increment      1: Step Time =    1.000,"P-39-1",           153,       181.109,       135.693,            0.,NA,NA,"",   2.56316E+06,   2.11892E+06,   2.11892E+06
C:/temp/Job-39.odb,Step-1,Increment      1: Step Time =    1.000,"P-39-1",           154,       190.905,       135.129,            0.,NA,NA,"",   2.32065E+06,   2.43451E+06,   2.43451E+06
C:/temp/Job-39.odb,Step-1,Increment      1: Step Time =    1.000,"P-39-1",           155,       180.188,       126.952,            0.,NA,NA,"",   2.32609E+06,   1.17047E+06,   1.17047E+06
C:/temp/Job-39.odb,Step-1,Increment      1: Step Time =    1.000,"P-39-1",           156,       190.267,       125.408,            0.,NA,NA,"",   2.68901E+06,   2.81445E+06,   2.81445E+06
C:/temp/Job-39.odb,Step-1,Increment      1: Step Time =    1.000,"P-39-1",           157,       178.568,       117.717,            0.,NA,NA,"",   1.98572E+06,  -148.494E+03,  -148.494E+03
C:/temp/Job-39.odb,Step-1,Increment      1: Step Time =    1.000,"P-39-1",           158,       189.466,       115.250,            0.,NA,NA,"",   2.66014E+06,   2.81034E+06,   2.81034E+06
C:/temp/Job-39.odb,Step-1,Increment      1: Step Time =    1.000,"P-39-1",           159,       189.382,       104.277,            0.,NA,NA,"",   2.54811E+06,   2.77490E+06,   2.77490E+06
C:/temp/Job-39.odb,Step-1,Increment      1: Step Time =    1.000,"P-39-1",           160,       178.033,       83.4904,            0.,NA,NA,"",   1.99664E+06,  -1.13460E+06,  -1.13460E+06
C:/temp/Job-39.odb,Step-1,Increment      1: Step Time =    1.000,"P-39-1",           161,       189.636,       84.1528,            0.,NA,NA,"",   2.68703E+06,   2.83357E+06,   2.83357E+06
C:/temp/Job-39.odb,Step-1,Increment      1: Step Time =    1.000,"P-39-1",           162,       190.892,       94.1336,            0.,NA,NA,"",   3.00460E+06,   3.27147E+06,   3.27147E+06
C:/temp/Job-39.odb,Step-1,Increment      1: Step Time =    1.000,"P-39-1",           163,       177.709,       95.0043,            0.,NA,NA,"",   2.21233E+06,  -2.23392E+06,  -2.23392E+06
C:/temp/Job-39.odb,Step-1,Increment      1: Step Time =    1.000,"P-39-1",           164,       180.609,       75.9409,            0.,NA,NA,"",   2.19976E+06,   595.321E+03,   595.321E+03
C:/temp/Job-39.odb,Step-1,Increment      1: Step Time =    1.000,"P-39-1",           165,       190.969,       74.5047,            0.,NA,NA,"",   2.72766E+06,   2.88866E+06,   2.88866E+06
C:/temp/Job-39.odb,Step-1,Increment      1: Step Time =    1.000,"P-39-1",           166,       169.182,       62.7645,            0.,NA,NA,"",   2.05284E+06,   931.424E+03,   931.424E+03
C:/temp/Job-39.odb,Step-1,Increment      1: Step Time =    1.000,"P-39-1",           167,       183.069,       63.3552,            0.,NA,NA,"",   2.55419E+06,   2.22606E+06,   2.22606E+06
C:/temp/Job-39.odb,Step-1,Increment      1: Step Time =    1.000,"P-39-1",           168,       190.815,       65.7222,            0.,NA,NA,"",   2.34959E+06,   2.46311E+06,   2.46311E+06
C:/temp/Job-39.odb,Step-1,Increment      1: Step Time =    1.000,"P-39-1",           169,       156.786,       50.8991,            0.,NA,NA,"",   2.63187E+06,   2.59625E+06,   2.59625E+06
C:/temp/Job-39.odb,Step-1,Increment      1: Step Time =    1.000,"P-39-1",           170,       171.211,       51.8827,            0.,NA,NA,"",   2.59140E+06,   2.19323E+06,   2.19323E+06
C:/temp/Job-39.odb,Step-1,Increment      1: Step Time =    1.000,"P-39-1",           171,       181.400,       52.2893,            0.,NA,NA,"",   2.33975E+06,   2.07775E+06,   2.07775E+06
C:/temp/Job-39.odb,Step-1,Increment      1: Step Time =    1.000,"P-39-1",           172,       187.931,       51.1488,            0.,NA,NA,"",   1.89888E+06,   1.86318E+06,   1.86318E+06
C:/temp/Job-39.odb,Step-1,Increment      1: Step Time =    1.000,"P-39-1",           173,       144.506,       40.2352,            0.,NA,NA,"",   4.53777E+06,   4.62094E+06,   4.62094E+06
C:/temp/Job-39.odb,Step-1,Increment      1: Step Time =    1.000,"P-39-1",           174,       159.568,       40.6729,            0.,NA,NA,"",   2.84211E+06,   2.75148E+06,   2.75148E+06
C:/temp/Job-39.odb,Step-1,Increment      1: Step Time =    1.000,"P-39-1",           175,       170.170,       39.9421,            0.,NA,NA,"",   2.42192E+06,   2.22493E+06,   2.22493E+06
C:/temp/Job-39.odb,Step-1,Increment      1: Step Time =    1.000,"P-39-1",           176,       181.736,       38.4930,            0.,NA,NA,"",   1.79699E+06,   1.69612E+06,   1.69612E+06
C:/temp/Job-39.odb,Step-1,Increment      1: Step Time =    1.000,"P-39-1",           177,       190.114,       43.2160,            0.,NA,NA,"",   1.43500E+06,   1.46097E+06,   1.46097E+06
C:/temp/Job-39.odb,Step-1,Increment      1: Step Time =    1.000,"P-39-1",           178,       137.426,       31.6005,            0.,NA,NA,"",   4.77733E+06,   4.93855E+06,   4.93855E+06
C:/temp/Job-39.odb,Step-1,Increment      1: Step Time =    1.000,"P-39-1",           179,       148.125,       31.5832,            0.,NA,NA,"",   3.31801E+06,    3.3864E+06,    3.3864E+06
C:/temp/Job-39.odb,Step-1,Increment      1: Step Time =    1.000,"P-39-1",           180,       157.613,       28.7307,            0.,NA,NA,"",   2.50741E+06,   2.46123E+06,   2.46123E+06
C:/temp/Job-39.odb,Step-1,Increment      1: Step Time =    1.000,"P-39-1",           181,       166.479,       29.2961,            0.,NA,NA,"",   2.14133E+06,   2.03570E+06,   2.03570E+06
C:/temp/Job-39.odb,Step-1,Increment      1: Step Time =    1.000,"P-39-1",           182,       181.193,       33.0460,            0.,NA,NA,"",   1.61815E+06,   1.54827E+06,   1.54827E+06
C:/temp/Job-39.odb,Step-1,Increment      1: Step Time =    1.000,"P-39-1",           183,       190.958,       34.4734,            0.,NA,NA,"",   1.19806E+06,   1.19475E+06,   1.19475E+06
C:/temp/Job-39.odb,Step-1,Increment      1: Step Time =    1.000,"P-39-1",           184,       10.2954,       20.3043,            0.,NA,NA,"",   2.64063E+06,   2.81766E+06,   2.81766E+06
C:/temp/Job-39.odb,Step-1,Increment      1: Step Time =    1.000,"P-39-1",           185,       20.1351,       23.6729,            0.,NA,NA,"",   2.39060E+06,   2.44525E+06,   2.44525E+06
C:/temp/Job-39.odb,Step-1,Increment      1: Step Time =    1.000,"P-39-1",           186,       35.7553,       22.8435,            0.,NA,NA,"",   2.62203E+06,   2.49982E+06,   2.49982E+06
C:/temp/Job-39.odb,Step-1,Increment      1: Step Time =    1.000,"P-39-1",           187,       43.8547,       20.2365,            0.,NA,NA,"",   2.98341E+06,   2.79729E+06,   2.79729E+06
C:/temp/Job-39.odb,Step-1,Increment      1: Step Time =    1.000,"P-39-1",           188,       54.9150,       19.2965,            0.,NA,NA,"",   3.24678E+06,   2.95209E+06,   2.95209E+06
C:/temp/Job-39.odb,Step-1,Increment      1: Step Time =    1.000,"P-39-1",           189,       66.1220,       20.2092,            0.,NA,NA,"",   3.48676E+06,   3.10306E+06,   3.10306E+06
C:/temp/Job-39.odb,Step-1,Increment      1: Step Time =    1.000,"P-39-1",           190,       72.8270,       21.0271,            0.,NA,NA,"",   3.65385E+06,   3.30398E+06,   3.30398E+06
C:/temp/Job-39.odb,Step-1,Increment      1: Step Time =    1.000,"P-39-1",           191,       81.5939,       21.1730,            0.,NA,NA,"",   4.01531E+06,   3.81894E+06,   3.81894E+06
C:/temp/Job-39.odb,Step-1,Increment      1: Step Time =    1.000,"P-39-1",           192,       93.8275,       21.2169,            0.,NA,NA,"",   4.86055E+06,   4.87850E+06,   4.87850E+06
C:/temp/Job-39.odb,Step-1,Increment      1: Step Time =    1.000,"P-39-1",           193,       104.296,       21.0335,            0.,NA,NA,"",   5.09759E+06,   5.25717E+06,   5.25717E+06
C:/temp/Job-39.odb,Step-1,Increment      1: Step Time =    1.000,"P-39-1",           194,       118.127,       20.9778,            0.,NA,NA,"",   4.39660E+06,   4.61500E+06,   4.61500E+06
C:/temp/Job-39.odb,Step-1,Increment      1: Step Time =    1.000,"P-39-1",           195,       126.983,       20.9128,            0.,NA,NA,"",   3.61371E+06,   3.81866E+06,   3.81866E+06
C:/temp/Job-39.odb,Step-1,Increment      1: Step Time =    1.000,"P-39-1",           196,       134.853,       19.2476,            0.,NA,NA,"",   2.67095E+06,   2.79621E+06,   2.79621E+06
C:/temp/Job-39.odb,Step-1,Increment      1: Step Time =    1.000,"P-39-1",           197,       146.744,       19.8421,            0.,NA,NA,"",   2.17508E+06,   2.17992E+06,   2.17992E+06
C:/temp/Job-39.odb,Step-1,Increment      1: Step Time =    1.000,"P-39-1",           198,       154.974,       19.3490,            0.,NA,NA,"",   1.89374E+06,   1.83526E+06,   1.83526E+06
C:/temp/Job-39.odb,Step-1,Increment      1: Step Time =    1.000,"P-39-1",           199,       167.590,       21.1129,            0.,NA,NA,"",   1.66930E+06,   1.58607E+06,   1.58607E+06
C:/temp/Job-39.odb,Step-1,Increment      1: Step Time =    1.000,"P-39-1",           200,       178.531,       23.4697,            0.,NA,NA,"",   1.42957E+06,   1.37366E+06,   1.37366E+06
C:/temp/Job-39.odb,Step-1,Increment      1: Step Time =    1.000,"P-39-1",           201,       191.211,       25.1857,            0.,NA,NA,"",   1.14295E+06,   1.09615E+06,   1.09615E+06
C:/temp/Job-39.odb,Step-1,Increment      1: Step Time =    1.000,"P-39-1",           202,       62.0732,       31.6356,            0.,NA,NA,"",   1.91521E+06,   1.42921E+06,   1.42921E+06
C:/temp/Job-39.odb,Step-1,Increment      1: Step Time =    1.000,"P-39-1",           203,       51.1444,       31.9945,            0.,NA,NA,"",   1.86705E+06,   1.33678E+06,   1.33678E+06
C:/temp/Job-39.odb,Step-1,Increment      1: Step Time =    1.000,"P-39-1",           204,       41.9712,       31.9662,            0.,NA,NA,"",   1.70854E+06,   1.36761E+06,   1.36761E+06
C:/temp/Job-39.odb,Step-1,Increment      1: Step Time =    1.000,"P-39-1",           205,       31.0725,       33.4939,            0.,NA,NA,"",   1.39751E+06,   1.29141E+06,   1.29141E+06
C:/temp/Job-39.odb,Step-1,Increment      1: Step Time =    1.000,"P-39-1",           206,       22.4128,       31.6894,            0.,NA,NA,"",   1.51337E+06,   1.54213E+06,   1.54213E+06
C:/temp/Job-39.odb,Step-1,Increment      1: Step Time =    1.000,"P-39-1",           207,       13.9425,       30.6821,            0.,NA,NA,"",   1.55327E+06,   1.67482E+06,   1.67482E+06
C:/temp/Job-39.odb,Step-1,Increment      1: Step Time =    1.000,"P-39-1",           208,       50.6617,       43.2474,            0.,NA,NA,"",   1.64368E+06,  -1.58896E+06,  -1.58896E+06
C:/temp/Job-39.odb,Step-1,Increment      1: Step Time =    1.000,"P-39-1",           209,       38.6564,       41.0126,            0.,NA,NA,"",   957.426E+03,  -344.458E+03,  -344.458E+03
C:/temp/Job-39.odb,Step-1,Increment      1: Step Time =    1.000,"P-39-1",           210,       28.9576,       43.7224,            0.,NA,NA,"",   589.784E+03,   125.421E+03,   125.421E+03
C:/temp/Job-39.odb,Step-1,Increment      1: Step Time =    1.000,"P-39-1",           211,       20.6432,       44.4516,            0.,NA,NA,"",   420.536E+03,   398.491E+03,   398.491E+03
C:/temp/Job-39.odb,Step-1,Increment      1: Step Time =    1.000,"P-39-1",           212,       9.45176,       40.1060,            0.,NA,NA,"",   693.490E+03,   786.147E+03,   786.147E+03
C:/temp/Job-39.odb,Step-1,Increment      1: Step Time =    1.000,"P-39-1",           213,       39.8386,       55.1558,            0.,NA,NA,"",   1.89170E+06,  -1.92501E+06,  -1.92501E+06
C:/temp/Job-39.odb,Step-1,Increment      1: Step Time =    1.000,"P-39-1",           214,       28.6178,       51.3061,            0.,NA,NA,"",   677.737E+03,  -648.939E+03,  -648.939E+03
C:/temp/Job-39.odb,Step-1,Increment      1: Step Time =    1.000,"P-39-1",           215,       20.0617,       53.9302,            0.,NA,NA,"",   505.257E+03,  -445.001E+03,  -445.001E+03
C:/temp/Job-39.odb,Step-1,Increment      1: Step Time =    1.000,"P-39-1",           216,       9.73797,       49.8669,            0.,NA,NA,"",   222.473E+03,   200.716E+03,   200.716E+03
C:/temp/Job-39.odb,Step-1,Increment      1: Step Time =    1.000,"P-39-1",           217,       29.6863,       62.7426,            0.,NA,NA,"",   1.23633E+06,  -1.26198E+06,  -1.26198E+06
C:/temp/Job-39.odb,Step-1,Increment      1: Step Time =    1.000,"P-39-1",           218,       20.9803,       61.1202,            0.,NA,NA,"",   765.642E+03,  -748.907E+03,  -748.907E+03
C:/temp/Job-39.odb,Step-1,Increment      1: Step Time =    1.000,"P-39-1",           219,       9.82489,       64.4238,            0.,NA,NA,"",   554.235E+03,  -543.317E+03,  -543.317E+03
C:/temp/Job-39.odb,Step-1,Increment      1: Step Time =    1.000,"P-39-1",           220,       21.1874,       71.1718,            0.,NA,NA,"",   896.841E+03,  -919.372E+03,  -919.372E+03
C:/temp/Job-39.odb,Step-1,Increment      1: Step Time =    1.000,"P-39-1",           221,       9.93982,       74.2664,            0.,NA,NA,"",   617.407E+03,  -649.545E+03,  -649.545E+03
C:/temp/Job-39.odb,Step-1,Increment      1: Step Time =    1.000,"P-39-1",           222,       21.8998,       83.3065,            0.,NA,NA,"",   770.533E+03,  -818.154E+03,  -818.154E+03
C:/temp/Job-39.odb,Step-1,Increment      1: Step Time =    1.000,"P-39-1",           223,       10.4210,       83.7707,            0.,NA,NA,"",   525.718E+03,  -588.158E+03,  -588.158E+03
C:/temp/Job-39.odb,Step-1,Increment      1: Step Time =    1.000,"P-39-1",           224,       10.9682,       94.7209,            0.,NA,NA,"",   408.846E+03,  -464.837E+03,  -464.837E+03
C:/temp/Job-39.odb,Step-1,Increment      1: Step Time =    1.000,"P-39-1",           225,       23.3333,       116.881,            0.,NA,NA,"",   821.849E+03,  -863.449E+03,  -863.449E+03
C:/temp/Job-39.odb,Step-1,Increment      1: Step Time =    1.000,"P-39-1",           226,       11.9022,       114.878,            0.,NA,NA,"",   524.987E+03,  -589.316E+03,  -589.316E+03
C:/temp/Job-39.odb,Step-1,Increment      1: Step Time =    1.000,"P-39-1",           227,       9.98722,       104.196,            0.,NA,NA,"",   382.392E+03,  -432.967E+03,  -432.967E+03
C:/temp/Job-39.odb,Step-1,Increment      1: Step Time =    1.000,"P-39-1",           228,       21.8929,       106.752,            0.,NA,NA,"",   624.485E+03,  -676.737E+03,  -676.737E+03
C:/temp/Job-39.odb,Step-1,Increment      1: Step Time =    1.000,"P-39-1",           229,       23.0435,       127.899,            0.,NA,NA,"",   958.436E+03,  -983.903E+03,  -983.903E+03
C:/temp/Job-39.odb,Step-1,Increment      1: Step Time =    1.000,"P-39-1",           230,       10.7718,       126.250,            0.,NA,NA,"",   632.570E+03,  -660.644E+03,  -660.644E+03
C:/temp/Job-39.odb,Step-1,Increment      1: Step Time =    1.000,"P-39-1",           231,       30.4203,       136.413,            0.,NA,NA,"",   1.32120E+06,  -1.35036E+06,  -1.35036E+06
C:/temp/Job-39.odb,Step-1,Increment      1: Step Time =    1.000,"P-39-1",           232,       21.0773,       137.960,            0.,NA,NA,"",   809.163E+03,  -796.671E+03,  -796.671E+03
C:/temp/Job-39.odb,Step-1,Increment      1: Step Time =    1.000,"P-39-1",           233,       10.0053,       136.752,            0.,NA,NA,"",   536.656E+03,  -515.149E+03,  -515.149E+03
C:/temp/Job-39.odb,Step-1,Increment      1: Step Time =    1.000,"P-39-1",           234,       42.3304,       149.165,            0.,NA,NA,"",   1.80114E+06,  -1.82509E+06,  -1.82509E+06
C:/temp/Job-39.odb,Step-1,Increment      1: Step Time =    1.000,"P-39-1",           235,       28.7350,       147.834,            0.,NA,NA,"",   735.726E+03,  -713.966E+03,  -713.966E+03
C:/temp/Job-39.odb,Step-1,Increment      1: Step Time =    1.000,"P-39-1",           236,       19.0730,       148.081,            0.,NA,NA,"",   380.463E+03,  -196.502E+03,  -196.502E+03
C:/temp/Job-39.odb,Step-1,Increment      1: Step Time =    1.000,"P-39-1",           237,       8.27190,       145.961,            0.,NA,NA,"",   242.932E+03,  -49.2058E+03,  -49.2058E+03
C:/temp/Job-39.odb,Step-1,Increment      1: Step Time =    1.000,"P-39-1",           238,       54.8440,       160.202,            0.,NA,NA,"",   1.46936E+06,  -1.28394E+06,  -1.28394E+06
C:/temp/Job-39.odb,Step-1,Increment      1: Step Time =    1.000,"P-39-1",           239,       39.5988,       161.480,            0.,NA,NA,"",   1.10337E+06,   92.6105E+03,   92.6105E+03
C:/temp/Job-39.odb,Step-1,Increment      1: Step Time =    1.000,"P-39-1",           240,       28.6212,       158.892,            0.,NA,NA,"",   701.939E+03,   379.203E+03,   379.203E+03
C:/temp/Job-39.odb,Step-1,Increment      1: Step Time =    1.000,"P-39-1",           241,       17.8824,       158.180,            0.,NA,NA,"",   573.034E+03,   621.991E+03,   621.991E+03
C:/temp/Job-39.odb,Step-1,Increment      1: Step Time =    1.000,"P-39-1",           242,       8.52220,       159.291,            0.,NA,NA,"",   651.244E+03,   741.580E+03,   741.580E+03
C:/temp/Job-39.odb,Step-1,Increment      1: Step Time =    1.000,"P-39-1",           243,       190.104,       10.3697,            0.,NA,NA,"",   1.01474E+06,   984.617E+03,   984.617E+03
C:/temp/Job-39.odb,Step-1,Increment      1: Step Time =    1.000,"P-39-1",           244,       179.267,       11.7650,            0.,NA,NA,"",   1.05027E+06,   1.01461E+06,   1.01461E+06
C:/temp/Job-39.odb,Step-1,Increment      1: Step Time =    1.000,"P-39-1",           245,       168.390,       13.3260,            0.,NA,NA,"",   1.19370E+06,   1.12656E+06,   1.12656E+06
C:/temp/Job-39.odb,Step-1,Increment      1: Step Time =    1.000,"P-39-1",           246,       159.736,       9.01791,            0.,NA,NA,"",   885.667E+03,   805.226E+03,   805.226E+03
C:/temp/Job-39.odb,Step-1,Increment      1: Step Time =    1.000,"P-39-1",           247,       150.237,       9.19618,            0.,NA,NA,"",   883.165E+03,   774.556E+03,   774.556E+03
C:/temp/Job-39.odb,Step-1,Increment      1: Step Time =    1.000,"P-39-1",           248,       135.472,       9.30891,            0.,NA,NA,"",   779.462E+03,   400.661E+03,   400.661E+03
C:/temp/Job-39.odb,Step-1,Increment      1: Step Time =    1.000,"P-39-1",           249,       125.579,       9.03709,            0.,NA,NA,"",   689.128E+03,   571.015E+03,   571.015E+03
C:/temp/Job-39.odb,Step-1,Increment      1: Step Time =    1.000,"P-39-1",           250,       115.193,       10.4520,            0.,NA,NA,"",   1.23555E+06,   1.27978E+06,   1.27978E+06
C:/temp/Job-39.odb,Step-1,Increment      1: Step Time =    1.000,"P-39-1",           251,       105.428,       8.61901,            0.,NA,NA,"",   1.47667E+06,   1.38973E+06,   1.38973E+06
C:/temp/Job-39.odb,Step-1,Increment      1: Step Time =    1.000,"P-39-1",           252,       95.3688,       10.9806,            0.,NA,NA,"",   2.71296E+06,   2.57322E+06,   2.57322E+06
C:/temp/Job-39.odb,Step-1,Increment      1: Step Time =    1.000,"P-39-1",           253,       84.3135,       10.0772,            0.,NA,NA,"",   3.13169E+06,   2.90906E+06,   2.90906E+06
C:/temp/Job-39.odb,Step-1,Increment      1: Step Time =    1.000,"P-39-1",           254,       74.6724,       8.65741,            0.,NA,NA,"",   3.40041E+06,   3.21623E+06,   3.21623E+06
C:/temp/Job-39.odb,Step-1,Increment      1: Step Time =    1.000,"P-39-1",           255,       65.1322,       9.15446,            0.,NA,NA,"",   3.72480E+06,   3.57994E+06,   3.57994E+06
C:/temp/Job-39.odb,Step-1,Increment      1: Step Time =    1.000,"P-39-1",           256,       54.8233,       9.48851,            0.,NA,NA,"",   3.94403E+06,   3.84327E+06,   3.84327E+06
C:/temp/Job-39.odb,Step-1,Increment      1: Step Time =    1.000,"P-39-1",           257,       39.8086,       9.25943,            0.,NA,NA,"",   4.10048E+06,   4.05715E+06,   4.05715E+06
C:/temp/Job-39.odb,Step-1,Increment      1: Step Time =    1.000,"P-39-1",           258,       30.1569,       9.24319,            0.,NA,NA,"",   4.10303E+06,   4.08830E+06,   4.08830E+06
C:/temp/Job-39.odb,Step-1,Increment      1: Step Time =    1.000,"P-39-1",           259,       20.2484,       9.71962,            0.,NA,NA,"",   4.03096E+06,   4.04617E+06,   4.04617E+06
C:/temp/Job-39.odb,Step-1,Increment      1: Step Time =    1.000,"P-39-1",           260,       10.1624,       10.0913,            0.,NA,NA,"",   3.97262E+06,   4.08756E+06,   4.08756E+06
C:/temp/Job-39.odb,Step-1,Increment      1: Step Time =    1.000,"P-39-1",           261,       189.978,       189.861,            0.,NA,NA,"",   1.00956E+06,   980.091E+03,   980.091E+03
C:/temp/Job-39.odb,Step-1,Increment      1: Step Time =    1.000,"P-39-1",           262,       179.500,       188.729,            0.,NA,NA,"",   1.03463E+06,   999.397E+03,   999.397E+03
C:/temp/Job-39.odb,Step-1,Increment      1: Step Time =    1.000,"P-39-1",           263,       169.422,       190.316,            0.,NA,NA,"",   969.959E+03,   915.438E+03,   915.438E+03
C:/temp/Job-39.odb,Step-1,Increment      1: Step Time =    1.000,"P-39-1",           264,       159.881,       190.674,            0.,NA,NA,"",   923.903E+03,   841.664E+03,   841.664E+03
C:/temp/Job-39.odb,Step-1,Increment      1: Step Time =    1.000,"P-39-1",           265,       145.509,       191.215,            0.,NA,NA,"",   792.202E+03,   666.919E+03,   666.919E+03
C:/temp/Job-39.odb,Step-1,Increment      1: Step Time =    1.000,"P-39-1",           266,       136.100,       191.548,            0.,NA,NA,"",   696.539E+03,   264.080E+03,   264.080E+03
C:/temp/Job-39.odb,Step-1,Increment      1: Step Time =    1.000,"P-39-1",           267,       126.829,       190.915,            0.,NA,NA,"",   628.993E+03,   498.346E+03,   498.346E+03
C:/temp/Job-39.odb,Step-1,Increment      1: Step Time =    1.000,"P-39-1",           268,       116.534,       188.465,            0.,NA,NA,"",   1.52668E+06,   1.61763E+06,   1.61763E+06
C:/temp/Job-39.odb,Step-1,Increment      1: Step Time =    1.000,"P-39-1",           269,       106.121,       188.192,            0.,NA,NA,"",    2.2316E+06,   2.23154E+06,   2.23154E+06
C:/temp/Job-39.odb,Step-1,Increment      1: Step Time =    1.000,"P-39-1",           270,       95.0010,       189.009,            0.,NA,NA,"",   2.74284E+06,   2.58996E+06,   2.58996E+06
C:/temp/Job-39.odb,Step-1,Increment      1: Step Time =    1.000,"P-39-1",           271,       83.8579,       188.062,            0.,NA,NA,"",   3.40026E+06,   3.16439E+06,   3.16439E+06
C:/temp/Job-39.odb,Step-1,Increment      1: Step Time =    1.000,"P-39-1",           272,       74.0160,       190.367,            0.,NA,NA,"",   3.45432E+06,   3.24652E+06,   3.24652E+06
C:/temp/Job-39.odb,Step-1,Increment      1: Step Time =    1.000,"P-39-1",           273,       64.6946,       190.791,            0.,NA,NA,"",   3.73545E+06,   3.59523E+06,   3.59523E+06
C:/temp/Job-39.odb,Step-1,Increment      1: Step Time =    1.000,"P-39-1",           274,       50.1152,       190.876,            0.,NA,NA,"",   4.04844E+06,   3.97180E+06,   3.97180E+06
C:/temp/Job-39.odb,Step-1,Increment      1: Step Time =    1.000,"P-39-1",           275,       39.6313,       190.224,            0.,NA,NA,"",   4.05006E+06,   4.00186E+06,   4.00186E+06
C:/temp/Job-39.odb,Step-1,Increment      1: Step Time =    1.000,"P-39-1",           276,       31.3369,       187.269,            0.,NA,NA,"",   3.70771E+06,   3.67615E+06,   3.67615E+06
C:/temp/Job-39.odb,Step-1,Increment      1: Step Time =    1.000,"P-39-1",           277,       20.9218,       189.859,            0.,NA,NA,"",   3.99079E+06,   4.00321E+06,   4.00321E+06
C:/temp/Job-39.odb,Step-1,Increment      1: Step Time =    1.000,"P-39-1",           278,       10.6124,       189.562,            0.,NA,NA,"",   3.93046E+06,   4.04153E+06,   4.04153E+06
C:/temp/Job-39.odb,Step-1,Increment      1: Step Time =    1.000,"P-39-1",           279,       95.0063,       169.822,            0.,NA,NA,"",   6.79023E+06,   6.85875E+06,   6.85875E+06
C:/temp/Job-39.odb,Step-1,Increment      1: Step Time =    1.000,"P-39-1",           280,       90.0380,       169.288,            0.,NA,NA,"",   5.70783E+06,   5.75900E+06,   5.75900E+06
C:/temp/Job-39.odb,Step-1,Increment      1: Step Time =    1.000,"P-39-1",           281,       80.2787,       167.165,            0.,NA,NA,"",   3.33227E+06,   3.34333E+06,   3.34333E+06
C:/temp/Job-39.odb,Step-1,Increment      1: Step Time =    1.000,"P-39-1",           282,       75.5375,       165.586,            0.,NA,NA,"",   2.16284E+06,   2.13666E+06,   2.13666E+06
C:/temp/Job-39.odb,Step-1,Increment      1: Step Time =    1.000,"P-39-1",           283,       66.4526,       161.438,            0.,NA,NA,"",   846.177E+03,  -42.5563E+03,  -42.5563E+03
C:/temp/Job-39.odb,Step-1,Increment      1: Step Time =    1.000,"P-39-1",           284,       62.1551,       158.888,            0.,NA,NA,"",   1.09768E+06,  -1.01801E+06,  -1.01801E+06
C:/temp/Job-39.odb,Step-1,Increment      1: Step Time =    1.000,"P-39-1",           285,       54.1597,       152.902,            0.,NA,NA,"",   1.96916E+06,  -1.97466E+06,  -1.97466E+06
C:/temp/Job-39.odb,Step-1,Increment      1: Step Time =    1.000,"P-39-1",           286,       50.5025,       149.497,            0.,NA,NA,"",   2.22070E+06,  -2.24039E+06,  -2.24039E+06
C:/temp/Job-39.odb,Step-1,Increment      1: Step Time =    1.000,"P-39-1",           287,       43.9621,       141.949,            0.,NA,NA,"",   2.29892E+06,  -2.32811E+06,  -2.32811E+06
C:/temp/Job-39.odb,Step-1,Increment      1: Step Time =    1.000,"P-39-1",           288,       41.1123,       137.845,            0.,NA,NA,"",   2.17427E+06,  -2.20128E+06,  -2.20128E+06
C:/temp/Job-39.odb,Step-1,Increment      1: Step Time =    1.000,"P-39-1",           289,       36.3258,       129.079,            0.,NA,NA,"",   1.70902E+06,  -1.72845E+06,  -1.72845E+06
C:/temp/Job-39.odb,Step-1,Increment      1: Step Time =    1.000,"P-39-1",           290,       34.4135,       124.462,            0.,NA,NA,"",   1.43653E+06,  -1.45402E+06,  -1.45402E+06
C:/temp/Job-39.odb,Step-1,Increment      1: Step Time =    1.000,"P-39-1",           291,       31.5997,       114.880,            0.,NA,NA,"",   980.419E+03,  -995.130E+03,  -995.130E+03
C:/temp/Job-39.odb,Step-1,Increment      1: Step Time =    1.000,"P-39-1",           292,       30.7125,       109.962,            0.,NA,NA,"",   826.464E+03,  -840.336E+03,  -840.336E+03
C:/temp/Job-39.odb,Step-1,Increment      1: Step Time =    1.000,"P-39-1",           293,           30.,          100.,            0.,NA,NA,"",   700.786E+03,  -717.410E+03,  -717.410E+03
C:/temp/Job-39.odb,Step-1,Increment      1: Step Time =    1.000,"P-39-1",           294,       31.5997,       85.1204,            0.,NA,NA,"",   963.807E+03,   -981.97E+03,   -981.97E+03
C:/temp/Job-39.odb,Step-1,Increment      1: Step Time =    1.000,"P-39-1",           295,       34.4135,       75.5375,            0.,NA,NA,"",   1.41149E+06,  -1.43086E+06,  -1.43086E+06
C:/temp/Job-39.odb,Step-1,Increment      1: Step Time =    1.000,"P-39-1",           296,       36.3258,       70.9210,            0.,NA,NA,"",   1.68331E+06,  -1.70595E+06,  -1.70595E+06
C:/temp/Job-39.odb,Step-1,Increment      1: Step Time =    1.000,"P-39-1",           297,       41.1123,       62.1551,            0.,NA,NA,"",   2.17330E+06,  -2.20132E+06,  -2.20132E+06
C:/temp/Job-39.odb,Step-1,Increment      1: Step Time =    1.000,"P-39-1",           298,       43.9621,       58.0506,            0.,NA,NA,"",   2.31801E+06,  -2.34449E+06,  -2.34449E+06
C:/temp/Job-39.odb,Step-1,Increment      1: Step Time =    1.000,"P-39-1",           299,       50.5025,       50.5025,            0.,NA,NA,"",   2.25163E+06,  -2.27089E+06,  -2.27089E+06
C:/temp/Job-39.odb,Step-1,Increment      1: Step Time =    1.000,"P-39-1",           300,       54.1597,       47.0975,            0.,NA,NA,"",   2.01022E+06,  -2.02126E+06,  -2.02126E+06
C:/temp/Job-39.odb,Step-1,Increment      1: Step Time =    1.000,"P-39-1",           301,       62.1551,       41.1123,            0.,NA,NA,"",   1.10396E+06,  -1.06281E+06,  -1.06281E+06
C:/temp/Job-39.odb,Step-1,Increment      1: Step Time =    1.000,"P-39-1",           302,       66.4526,       38.5625,            0.,NA,NA,"",   736.716E+03,  -122.169E+03,  -122.169E+03
C:/temp/Job-39.odb,Step-1,Increment      1: Step Time =    1.000,"P-39-1",           303,       75.5375,       34.4135,            0.,NA,NA,"",   2.02529E+06,   2.00702E+06,   2.00702E+06
C:/temp/Job-39.odb,Step-1,Increment      1: Step Time =    1.000,"P-39-1",           304,       80.2787,       32.8355,            0.,NA,NA,"",   3.22374E+06,   3.23608E+06,   3.23608E+06
C:/temp/Job-39.odb,Step-1,Increment      1: Step Time =    1.000,"P-39-1",           305,       90.0380,       30.7125,            0.,NA,NA,"",   5.61622E+06,   5.66718E+06,   5.66718E+06
C:/temp/Job-39.odb,Step-1,Increment      1: Step Time =    1.000,"P-39-1",           306,       95.0063,       30.1784,            0.,NA,NA,"",   6.70664E+06,   6.76661E+06,   6.76661E+06
C:/temp/Job-39.odb,Step-1,Increment      1: Step Time =    1.000,"P-39-1",           307,       104.994,       30.1784,            0.,NA,NA,"",   8.18706E+06,   8.29045E+06,   8.29045E+06
C:/temp/Job-39.odb,Step-1,Increment      1: Step Time =    1.000,"P-39-1",           308,       109.962,       30.7125,            0.,NA,NA,"",    8.4831E+06,   8.60600E+06,   8.60600E+06
C:/temp/Job-39.odb,Step-1,Increment      1: Step Time =    1.000,"P-39-1",           309,       119.721,       32.8355,            0.,NA,NA,"",   8.30850E+06,   8.42348E+06,   8.42348E+06
C:/temp/Job-39.odb,Step-1,Increment      1: Step Time =    1.000,"P-39-1",           310,       124.462,       34.4135,            0.,NA,NA,"",   7.89124E+06,   7.99226E+06,   7.99226E+06
C:/temp/Job-39.odb,Step-1,Increment      1: Step Time =    1.000,"P-39-1",           311,       133.547,       38.5625,            0.,NA,NA,"",   6.59068E+06,   6.66276E+06,   6.66276E+06
C:/temp/Job-39.odb,Step-1,Increment      1: Step Time =    1.000,"P-39-1",           312,       137.845,       41.1123,            0.,NA,NA,"",   5.77917E+06,   5.84658E+06,   5.84658E+06
C:/temp/Job-39.odb,Step-1,Increment      1: Step Time =    1.000,"P-39-1",           313,       145.840,       47.0975,            0.,NA,NA,"",   4.17168E+06,   4.22113E+06,   4.22113E+06
C:/temp/Job-39.odb,Step-1,Increment      1: Step Time =    1.000,"P-39-1",           314,       149.497,       50.5025,            0.,NA,NA,"",   3.38740E+06,   3.42172E+06,   3.42172E+06
C:/temp/Job-39.odb,Step-1,Increment      1: Step Time =    1.000,"P-39-1",           315,       156.038,       58.0506,            0.,NA,NA,"",   1.85705E+06,   1.83807E+06,   1.83807E+06
C:/temp/Job-39.odb,Step-1,Increment      1: Step Time =    1.000,"P-39-1",           316,       158.888,       62.1551,            0.,NA,NA,"",   1.15855E+06,   1.06966E+06,   1.06966E+06
C:/temp/Job-39.odb,Step-1,Increment      1: Step Time =    1.000,"P-39-1",           317,       163.674,       70.9210,            0.,NA,NA,"",   1.29823E+06,  -1.22649E+06,  -1.22649E+06
C:/temp/Job-39.odb,Step-1,Increment      1: Step Time =    1.000,"P-39-1",           318,       165.586,       75.5375,            0.,NA,NA,"",   2.19148E+06,  -2.18194E+06,  -2.18194E+06
C:/temp/Job-39.odb,Step-1,Increment      1: Step Time =    1.000,"P-39-1",           319,       168.400,       85.1204,            0.,NA,NA,"",   4.03045E+06,  -4.05676E+06,  -4.05676E+06
C:/temp/Job-39.odb,Step-1,Increment      1: Step Time =    1.000,"P-39-1",           320,       169.288,       90.0380,            0.,NA,NA,"",   4.73242E+06,  -4.77391E+06,  -4.77391E+06
C:/temp/Job-39.odb,Step-1,Increment      1: Step Time =    1.000,"P-39-1",           321,          170.,          100.,            0.,NA,NA,"",   5.39892E+06,  -5.44014E+06,  -5.44014E+06
C:/temp/Job-39.odb,Step-1,Increment      1: Step Time =    1.000,"P-39-1",           322,       168.400,       114.880,            0.,NA,NA,"",   3.94434E+06,  -3.97355E+06,  -3.97355E+06
C:/temp/Job-39.odb,Step-1,Increment      1: Step Time =    1.000,"P-39-1",           323,       165.586,       124.462,            0.,NA,NA,"",   2.11874E+06,  -2.10684E+06,  -2.10684E+06
C:/temp/Job-39.odb,Step-1,Increment      1: Step Time =    1.000,"P-39-1",           324,       163.674,       129.079,            0.,NA,NA,"",   1.22795E+06,  -1.15718E+06,  -1.15718E+06
C:/temp/Job-39.odb,Step-1,Increment      1: Step Time =    1.000,"P-39-1",           325,       158.888,       137.845,            0.,NA,NA,"",   1.11519E+06,   1.05145E+06,   1.05145E+06
C:/temp/Job-39.odb,Step-1,Increment      1: Step Time =    1.000,"P-39-1",           326,       156.038,       141.949,            0.,NA,NA,"",   1.85634E+06,   1.84838E+06,   1.84838E+06
C:/temp/Job-39.odb,Step-1,Increment      1: Step Time =    1.000,"P-39-1",           327,       149.497,       149.497,            0.,NA,NA,"",   3.40119E+06,   3.43937E+06,   3.43937E+06
C:/temp/Job-39.odb,Step-1,Increment      1: Step Time =    1.000,"P-39-1",           328,       145.840,       152.902,            0.,NA,NA,"",   4.18481E+06,   4.24000E+06,   4.24000E+06
C:/temp/Job-39.odb,Step-1,Increment      1: Step Time =    1.000,"P-39-1",           329,       137.845,       158.888,            0.,NA,NA,"",   5.74842E+06,   5.82540E+06,   5.82540E+06
C:/temp/Job-39.odb,Step-1,Increment      1: Step Time =    1.000,"P-39-1",           330,       133.547,       161.438,            0.,NA,NA,"",   6.54084E+06,   6.62243E+06,   6.62243E+06
C:/temp/Job-39.odb,Step-1,Increment      1: Step Time =    1.000,"P-39-1",           331,       124.462,       165.586,            0.,NA,NA,"",   7.89247E+06,   7.99899E+06,   7.99899E+06
C:/temp/Job-39.odb,Step-1,Increment      1: Step Time =    1.000,"P-39-1",           332,       119.721,       167.165,            0.,NA,NA,"",   8.35461E+06,   8.47272E+06,   8.47272E+06
C:/temp/Job-39.odb,Step-1,Increment      1: Step Time =    1.000,"P-39-1",           333,       109.962,       169.288,            0.,NA,NA,"",   8.58625E+06,   8.69630E+06,   8.69630E+06
C:/temp/Job-39.odb,Step-1,Increment      1: Step Time =    1.000,"P-39-1",           334,       104.994,       169.822,            0.,NA,NA,"",   8.28045E+06,   8.37850E+06,   8.37850E+06
C:/temp/Job-39.odb,Step-1,Increment      1: Step Time =    1.000,"P-39-1",           335,          195.,            0.,            0.,NA,NA,"",   980.340E+03,   975.445E+03,   975.445E+03
C:/temp/Job-39.odb,Step-1,Increment      1: Step Time =    1.000,"P-39-1",           336,          185.,            0.,            0.,NA,NA,"",   852.039E+03,   847.362E+03,   847.362E+03
C:/temp/Job-39.odb,Step-1,Increment      1: Step Time =    1.000,"P-39-1",           337,          175.,            0.,            0.,NA,NA,"",   638.358E+03,   632.182E+03,   632.182E+03
C:/temp/Job-39.odb,Step-1,Increment      1: Step Time =    1.000,"P-39-1",           338,          165.,            0.,            0.,NA,NA,"",   341.165E+03,   324.234E+03,   324.234E+03
C:/temp/Job-39.odb,Step-1,Increment      1: Step Time =    1.000,"P-39-1",           339,          155.,            0.,            0.,NA,NA,"",   261.622E+03,  -217.540E+03,  -217.540E+03
C:/temp/Job-39.odb,Step-1,Increment      1: Step Time =    1.000,"P-39-1",           340,          145.,            0.,            0.,NA,NA,"",   711.309E+03,  -698.889E+03,  -698.889E+03
C:/temp/Job-39.odb,Step-1,Increment      1: Step Time =    1.000,"P-39-1",           341,          135.,            0.,            0.,NA,NA,"",   1.22288E+06,  -1.21556E+06,  -1.21556E+06
C:/temp/Job-39.odb,Step-1,Increment      1: Step Time =    1.000,"P-39-1",           342,          125.,            0.,            0.,NA,NA,"",   1.59487E+06,  -1.57998E+06,  -1.57998E+06
C:/temp/Job-39.odb,Step-1,Increment      1: Step Time =    1.000,"P-39-1",           343,          115.,            0.,            0.,NA,NA,"",   1.55943E+06,  -1.54251E+06,  -1.54251E+06
C:/temp/Job-39.odb,Step-1,Increment      1: Step Time =    1.000,"P-39-1",           344,          105.,            0.,            0.,NA,NA,"",   1.05950E+06,  -1.01160E+06,  -1.01160E+06
C:/temp/Job-39.odb,Step-1,Increment      1: Step Time =    1.000,"P-39-1",           345,           95.,            0.,            0.,NA,NA,"",   661.380E+03,   144.467E+03,   144.467E+03
C:/temp/Job-39.odb,Step-1,Increment      1: Step Time =    1.000,"P-39-1",           346,           85.,            0.,            0.,NA,NA,"",   1.65568E+06,   1.60538E+06,   1.60538E+06
C:/temp/Job-39.odb,Step-1,Increment      1: Step Time =    1.000,"P-39-1",           347,           75.,            0.,            0.,NA,NA,"",   2.94572E+06,   2.92184E+06,   2.92184E+06
C:/temp/Job-39.odb,Step-1,Increment      1: Step Time =    1.000,"P-39-1",           348,           65.,            0.,            0.,NA,NA,"",   3.99340E+06,   3.97885E+06,   3.97885E+06
C:/temp/Job-39.odb,Step-1,Increment      1: Step Time =    1.000,"P-39-1",           349,           55.,            0.,            0.,NA,NA,"",   4.62602E+06,   4.61459E+06,   4.61459E+06
C:/temp/Job-39.odb,Step-1,Increment      1: Step Time =    1.000,"P-39-1",           350,           45.,            0.,            0.,NA,NA,"",   4.91449E+06,   4.90802E+06,   4.90802E+06
C:/temp/Job-39.odb,Step-1,Increment      1: Step Time =    1.000,"P-39-1",           351,           35.,            0.,            0.,NA,NA,"",   4.95571E+06,   4.95347E+06,   4.95347E+06
C:/temp/Job-39.odb,Step-1,Increment      1: Step Time =    1.000,"P-39-1",           352,           25.,            0.,            0.,NA,NA,"",   4.84573E+06,   4.84713E+06,   4.84713E+06
C:/temp/Job-39.odb,Step-1,Increment      1: Step Time =    1.000,"P-39-1",           353,           15.,            0.,            0.,NA,NA,"",   4.72184E+06,   4.73262E+06,   4.73262E+06
C:/temp/Job-39.odb,Step-1,Increment      1: Step Time =    1.000,"P-39-1",           354,            5.,            0.,            0.,NA,NA,"",   4.96562E+06,   5.07634E+06,   5.07634E+06
C:/temp/Job-39.odb,Step-1,Increment      1: Step Time =    1.000,"P-39-1",           355,          200.,          195.,            0.,NA,NA,"",   1.00439E+06,   991.645E+03,   991.645E+03
C:/temp/Job-39.odb,Step-1,Increment      1: Step Time =    1.000,"P-39-1",           356,          200.,          185.,            0.,NA,NA,"",   1.07787E+06,   1.00376E+06,   1.00376E+06
C:/temp/Job-39.odb,Step-1,Increment      1: Step Time =    1.000,"P-39-1",           357,          200.,          175.,            0.,NA,NA,"",   1.13248E+06,   1.01523E+06,   1.01523E+06
C:/temp/Job-39.odb,Step-1,Increment      1: Step Time =    1.000,"P-39-1",           358,          200.,          165.,            0.,NA,NA,"",   1.06058E+06,   1.02884E+06,   1.02884E+06
C:/temp/Job-39.odb,Step-1,Increment      1: Step Time =    1.000,"P-39-1",           359,          200.,          155.,            0.,NA,NA,"",   950.828E+03,   1.07335E+06,   1.07335E+06
C:/temp/Job-39.odb,Step-1,Increment      1: Step Time =    1.000,"P-39-1",           360,          200.,          145.,            0.,NA,NA,"",   1.32921E+06,   1.52619E+06,   1.52619E+06
C:/temp/Job-39.odb,Step-1,Increment      1: Step Time =    1.000,"P-39-1",           361,          200.,          135.,            0.,NA,NA,"",   2.39039E+06,   2.71787E+06,   2.71787E+06
C:/temp/Job-39.odb,Step-1,Increment      1: Step Time =    1.000,"P-39-1",           362,          200.,          125.,            0.,NA,NA,"",   3.72953E+06,   4.11383E+06,   4.11383E+06
C:/temp/Job-39.odb,Step-1,Increment      1: Step Time =    1.000,"P-39-1",           363,          200.,          115.,            0.,NA,NA,"",   4.92691E+06,   5.32913E+06,   5.32913E+06
C:/temp/Job-39.odb,Step-1,Increment      1: Step Time =    1.000,"P-39-1",           364,          200.,          105.,            0.,NA,NA,"",   5.61990E+06,   6.03731E+06,   6.03731E+06
C:/temp/Job-39.odb,Step-1,Increment      1: Step Time =    1.000,"P-39-1",           365,          200.,           95.,            0.,NA,NA,"",   5.67822E+06,   6.09186E+06,   6.09186E+06
C:/temp/Job-39.odb,Step-1,Increment      1: Step Time =    1.000,"P-39-1",           366,          200.,           85.,            0.,NA,NA,"",   4.95128E+06,    5.3593E+06,    5.3593E+06
C:/temp/Job-39.odb,Step-1,Increment      1: Step Time =    1.000,"P-39-1",           367,          200.,           75.,            0.,NA,NA,"",   3.74344E+06,   4.12972E+06,   4.12972E+06
C:/temp/Job-39.odb,Step-1,Increment      1: Step Time =    1.000,"P-39-1",           368,          200.,           65.,            0.,NA,NA,"",   2.38983E+06,   2.70968E+06,   2.70968E+06
C:/temp/Job-39.odb,Step-1,Increment      1: Step Time =    1.000,"P-39-1",           369,          200.,           55.,            0.,NA,NA,"",   1.36811E+06,   1.57832E+06,   1.57832E+06
C:/temp/Job-39.odb,Step-1,Increment      1: Step Time =    1.000,"P-39-1",           370,          200.,           45.,            0.,NA,NA,"",   967.797E+03,   1.08723E+06,   1.08723E+06
C:/temp/Job-39.odb,Step-1,Increment      1: Step Time =    1.000,"P-39-1",           371,          200.,           35.,            0.,NA,NA,"",   1.07008E+06,   1.02320E+06,   1.02320E+06
C:/temp/Job-39.odb,Step-1,Increment      1: Step Time =    1.000,"P-39-1",           372,          200.,           25.,            0.,NA,NA,"",   1.13849E+06,   1.01189E+06,   1.01189E+06
C:/temp/Job-39.odb,Step-1,Increment      1: Step Time =    1.000,"P-39-1",           373,          200.,           15.,            0.,NA,NA,"",   1.07714E+06,   1.00281E+06,   1.00281E+06
C:/temp/Job-39.odb,Step-1,Increment      1: Step Time =    1.000,"P-39-1",           374,          200.,            5.,            0.,NA,NA,"",   1.00467E+06,   992.123E+03,   992.123E+03
C:/temp/Job-39.odb,Step-1,Increment      1: Step Time =    1.000,"P-39-1",           375,            5.,          200.,            0.,NA,NA,"",   4.96266E+06,   5.07385E+06,   5.07385E+06
C:/temp/Job-39.odb,Step-1,Increment      1: Step Time =    1.000,"P-39-1",           376,           15.,          200.,            0.,NA,NA,"",   4.72378E+06,   4.73535E+06,   4.73535E+06
C:/temp/Job-39.odb,Step-1,Increment      1: Step Time =    1.000,"P-39-1",           377,           25.,          200.,            0.,NA,NA,"",   4.85468E+06,   4.85319E+06,   4.85319E+06
C:/temp/Job-39.odb,Step-1,Increment      1: Step Time =    1.000,"P-39-1",           378,           35.,          200.,            0.,NA,NA,"",   4.95766E+06,   4.95620E+06,   4.95620E+06
C:/temp/Job-39.odb,Step-1,Increment      1: Step Time =    1.000,"P-39-1",           379,           45.,          200.,            0.,NA,NA,"",   4.92788E+06,   4.92273E+06,   4.92273E+06
C:/temp/Job-39.odb,Step-1,Increment      1: Step Time =    1.000,"P-39-1",           380,           55.,          200.,            0.,NA,NA,"",   4.63938E+06,   4.62858E+06,   4.62858E+06
C:/temp/Job-39.odb,Step-1,Increment      1: Step Time =    1.000,"P-39-1",           381,           65.,          200.,            0.,NA,NA,"",   3.99530E+06,   3.98009E+06,   3.98009E+06
C:/temp/Job-39.odb,Step-1,Increment      1: Step Time =    1.000,"P-39-1",           382,           75.,          200.,            0.,NA,NA,"",   2.98839E+06,   2.95458E+06,   2.95458E+06
C:/temp/Job-39.odb,Step-1,Increment      1: Step Time =    1.000,"P-39-1",           383,           85.,          200.,            0.,NA,NA,"",   1.71916E+06,   1.66902E+06,   1.66902E+06
C:/temp/Job-39.odb,Step-1,Increment      1: Step Time =    1.000,"P-39-1",           384,           95.,          200.,            0.,NA,NA,"",   736.721E+03,   202.829E+03,   202.829E+03
C:/temp/Job-39.odb,Step-1,Increment      1: Step Time =    1.000,"P-39-1",           385,          105.,          200.,            0.,NA,NA,"",   944.706E+03,  -893.623E+03,  -893.623E+03
C:/temp/Job-39.odb,Step-1,Increment      1: Step Time =    1.000,"P-39-1",           386,          115.,          200.,            0.,NA,NA,"",   1.49945E+06,  -1.46841E+06,  -1.46841E+06
C:/temp/Job-39.odb,Step-1,Increment      1: Step Time =    1.000,"P-39-1",           387,          125.,          200.,            0.,NA,NA,"",   1.54648E+06,  -1.53663E+06,  -1.53663E+06
C:/temp/Job-39.odb,Step-1,Increment      1: Step Time =    1.000,"P-39-1",           388,          135.,          200.,            0.,NA,NA,"",   1.23698E+06,  -1.22734E+06,  -1.22734E+06
C:/temp/Job-39.odb,Step-1,Increment      1: Step Time =    1.000,"P-39-1",           389,          145.,          200.,            0.,NA,NA,"",   727.674E+03,  -716.150E+03,  -716.150E+03
C:/temp/Job-39.odb,Step-1,Increment      1: Step Time =    1.000,"P-39-1",           390,          155.,          200.,            0.,NA,NA,"",   271.514E+03,  -227.483E+03,  -227.483E+03
C:/temp/Job-39.odb,Step-1,Increment      1: Step Time =    1.000,"P-39-1",           391,          165.,          200.,            0.,NA,NA,"",   341.903E+03,   322.736E+03,   322.736E+03
C:/temp/Job-39.odb,Step-1,Increment      1: Step Time =    1.000,"P-39-1",           392,          175.,          200.,            0.,NA,NA,"",   637.395E+03,   630.272E+03,   630.272E+03
C:/temp/Job-39.odb,Step-1,Increment      1: Step Time =    1.000,"P-39-1",           393,          185.,          200.,            0.,NA,NA,"",   852.502E+03,   847.995E+03,   847.995E+03
C:/temp/Job-39.odb,Step-1,Increment      1: Step Time =    1.000,"P-39-1",           394,          195.,          200.,            0.,NA,NA,"",   980.446E+03,   975.832E+03,   975.832E+03
C:/temp/Job-39.odb,Step-1,Increment      1: Step Time =    1.000,"P-39-1",           395,            0.,            5.,            0.,NA,NA,"",   4.48158E+06,   4.80006E+06,   4.80006E+06
C:/temp/Job-39.odb,Step-1,Increment      1: Step Time =    1.000,"P-39-1",           396,            0.,           15.,            0.,NA,NA,"",   2.96578E+06,   3.29319E+06,   3.29319E+06
C:/temp/Job-39.odb,Step-1,Increment      1: Step Time =    1.000,"P-39-1",           397,            0.,           25.,            0.,NA,NA,"",   1.98704E+06,   2.22222E+06,   2.22222E+06
C:/temp/Job-39.odb,Step-1,Increment      1: Step Time =    1.000,"P-39-1",           398,            0.,           35.,            0.,NA,NA,"",   1.13050E+06,   1.26837E+06,   1.26837E+06
C:/temp/Job-39.odb,Step-1,Increment      1: Step Time =    1.000,"P-39-1",           399,            0.,           45.,            0.,NA,NA,"",   435.034E+03,   490.468E+03,   490.468E+03
C:/temp/Job-39.odb,Step-1,Increment      1: Step Time =    1.000,"P-39-1",           400,            0.,           55.,            0.,NA,NA,"",   141.132E+03,  -71.6004E+03,  -71.6004E+03
C:/temp/Job-39.odb,Step-1,Increment      1: Step Time =    1.000,"P-39-1",           401,            0.,           65.,            0.,NA,NA,"",   425.087E+03,  -449.858E+03,  -449.858E+03
C:/temp/Job-39.odb,Step-1,Increment      1: Step Time =    1.000,"P-39-1",           402,            0.,           75.,            0.,NA,NA,"",   532.382E+03,  -573.749E+03,  -573.749E+03
C:/temp/Job-39.odb,Step-1,Increment      1: Step Time =    1.000,"P-39-1",           403,            0.,           85.,            0.,NA,NA,"",   488.843E+03,  -542.197E+03,  -542.197E+03
C:/temp/Job-39.odb,Step-1,Increment      1: Step Time =    1.000,"P-39-1",           404,            0.,           95.,            0.,NA,NA,"",   390.006E+03,  -448.291E+03,  -448.291E+03
C:/temp/Job-39.odb,Step-1,Increment      1: Step Time =    1.000,"P-39-1",           405,            0.,          105.,            0.,NA,NA,"",   386.580E+03,  -444.395E+03,  -444.395E+03
C:/temp/Job-39.odb,Step-1,Increment      1: Step Time =    1.000,"P-39-1",           406,            0.,          115.,            0.,NA,NA,"",   487.419E+03,  -541.253E+03,  -541.253E+03
C:/temp/Job-39.odb,Step-1,Increment      1: Step Time =    1.000,"P-39-1",           407,            0.,          125.,            0.,NA,NA,"",   530.865E+03,  -571.327E+03,  -571.327E+03
C:/temp/Job-39.odb,Step-1,Increment      1: Step Time =    1.000,"P-39-1",           408,            0.,          135.,            0.,NA,NA,"",   414.460E+03,  -438.376E+03,  -438.376E+03
C:/temp/Job-39.odb,Step-1,Increment      1: Step Time =    1.000,"P-39-1",           409,            0.,          145.,            0.,NA,NA,"",   141.058E+03,  -62.9257E+03,  -62.9257E+03
C:/temp/Job-39.odb,Step-1,Increment      1: Step Time =    1.000,"P-39-1",           410,            0.,          155.,            0.,NA,NA,"",   444.204E+03,   499.856E+03,   499.856E+03
C:/temp/Job-39.odb,Step-1,Increment      1: Step Time =    1.000,"P-39-1",           411,            0.,          165.,            0.,NA,NA,"",   1.10893E+06,   1.24313E+06,   1.24313E+06
C:/temp/Job-39.odb,Step-1,Increment      1: Step Time =    1.000,"P-39-1",           412,            0.,          175.,            0.,NA,NA,"",   1.95539E+06,   2.18568E+06,   2.18568E+06
C:/temp/Job-39.odb,Step-1,Increment      1: Step Time =    1.000,"P-39-1",           413,            0.,          185.,            0.,NA,NA,"",   2.94945E+06,   3.26975E+06,   3.26975E+06
C:/temp/Job-39.odb,Step-1,Increment      1: Step Time =    1.000,"P-39-1",           414,            0.,          195.,            0.,NA,NA,"",   4.47731E+06,   4.79352E+06,   4.79352E+06
C:/temp/Job-39.odb,Step-1,Increment      1: Step Time =    1.000,"P-39-1",           415,       30.7125,       90.0380,            0.,NA,NA,"",   817.652E+03,  -836.229E+03,  -836.229E+03
C:/temp/Job-39.odb,Step-1,Increment      1: Step Time =    1.000,"P-39-1",           416,       169.288,       109.962,            0.,NA,NA,"",   4.65741E+06,  -4.69966E+06,  -4.69966E+06
C:/temp/Job-39.odb,Step-1,Increment      1: Step Time =    1.000,"P-39-1",           417,       99.9550,       174.377,            0.,NA,NA,"",   6.74093E+06,   6.84790E+06,   6.84790E+06
C:/temp/Job-39.odb,Step-1,Increment      1: Step Time =    1.000,"P-39-1",           418,       64.2197,       165.976,            0.,NA,NA,"",   1.39131E+06,   717.723E+03,   717.723E+03
C:/temp/Job-39.odb,Step-1,Increment      1: Step Time =    1.000,"P-39-1",           419,       79.2405,       171.831,            0.,NA,NA,"",   3.46533E+06,   3.39556E+06,   3.39556E+06
C:/temp/Job-39.odb,Step-1,Increment      1: Step Time =    1.000,"P-39-1",           420,       27.6825,       115.830,            0.,NA,NA,"",   930.686E+03,  -955.179E+03,  -955.179E+03
C:/temp/Job-39.odb,Step-1,Increment      1: Step Time =    1.000,"P-39-1",           421,       89.6388,       173.993,            0.,NA,NA,"",   5.27087E+06,   5.29669E+06,   5.29669E+06
C:/temp/Job-39.odb,Step-1,Increment      1: Step Time =    1.000,"P-39-1",           422,       39.3590,       144.635,            0.,NA,NA,"",   1.85184E+06,  -1.88536E+06,  -1.88536E+06
C:/temp/Job-39.odb,Step-1,Increment      1: Step Time =    1.000,"P-39-1",           423,       25.7024,       89.6292,            0.,NA,NA,"",   761.896E+03,  -794.921E+03,  -794.921E+03
C:/temp/Job-39.odb,Step-1,Increment      1: Step Time =    1.000,"P-39-1",           424,       32.5558,       130.368,            0.,NA,NA,"",   1.53990E+06,  -1.56551E+06,  -1.56551E+06
C:/temp/Job-39.odb,Step-1,Increment      1: Step Time =    1.000,"P-39-1",           425,       25.0363,       95.1600,            0.,NA,NA,"",   678.702E+03,  -713.159E+03,  -713.159E+03
C:/temp/Job-39.odb,Step-1,Increment      1: Step Time =    1.000,"P-39-1",           426,       36.6134,       59.5317,            0.,NA,NA,"",   1.80354E+06,  -1.83719E+06,  -1.83719E+06
C:/temp/Job-39.odb,Step-1,Increment      1: Step Time =    1.000,"P-39-1",           427,       29.0120,       120.738,            0.,NA,NA,"",   1.10904E+06,  -1.13246E+06,  -1.13246E+06
C:/temp/Job-39.odb,Step-1,Increment      1: Step Time =    1.000,"P-39-1",           428,       25.3162,       100.493,            0.,NA,NA,"",   659.674E+03,  -691.965E+03,  -691.965E+03
C:/temp/Job-39.odb,Step-1,Increment      1: Step Time =    1.000,"P-39-1",           429,       28.3135,       79.1639,            0.,NA,NA,"",   1.07964E+06,  -1.10590E+06,  -1.10590E+06
C:/temp/Job-39.odb,Step-1,Increment      1: Step Time =    1.000,"P-39-1",           430,       46.8709,       46.9914,            0.,NA,NA,"",   1.80305E+06,  -1.80117E+06,  -1.80117E+06
C:/temp/Job-39.odb,Step-1,Increment      1: Step Time =    1.000,"P-39-1",           431,       36.8491,       139.865,            0.,NA,NA,"",   1.84343E+06,  -1.87698E+06,  -1.87698E+06
C:/temp/Job-39.odb,Step-1,Increment      1: Step Time =    1.000,"P-39-1",           432,       30.0914,       74.2003,            0.,NA,NA,"",   1.28738E+06,  -1.31342E+06,  -1.31342E+06
C:/temp/Job-39.odb,Step-1,Increment      1: Step Time =    1.000,"P-39-1",           433,       26.7772,       110.828,            0.,NA,NA,"",   792.555E+03,  -818.117E+03,  -818.117E+03
C:/temp/Job-39.odb,Step-1,Increment      1: Step Time =    1.000,"P-39-1",           434,       32.0509,       69.3343,            0.,NA,NA,"",   1.50037E+06,  -1.52810E+06,  -1.52810E+06
C:/temp/Job-39.odb,Step-1,Increment      1: Step Time =    1.000,"P-39-1",           435,       43.3010,       51.0271,            0.,NA,NA,"",   1.90424E+06,  -1.92979E+06,  -1.92979E+06
C:/temp/Job-39.odb,Step-1,Increment      1: Step Time =    1.000,"P-39-1",           436,       34.1763,       64.3995,            0.,NA,NA,"",   1.67772E+06,  -1.70823E+06,  -1.70823E+06
C:/temp/Job-39.odb,Step-1,Increment      1: Step Time =    1.000,"P-39-1",           437,       26.8108,       84.3005,            0.,NA,NA,"",   900.784E+03,  -930.018E+03,  -930.018E+03
C:/temp/Job-39.odb,Step-1,Increment      1: Step Time =    1.000,"P-39-1",           438,       74.1930,       169.988,            0.,NA,NA,"",   2.54989E+06,   2.42309E+06,   2.42309E+06
C:/temp/Job-39.odb,Step-1,Increment      1: Step Time =    1.000,"P-39-1",           439,       161.946,       140.429,            0.,NA,NA,"",   1.50363E+06,   1.33563E+06,   1.33563E+06
C:/temp/Job-39.odb,Step-1,Increment      1: Step Time =    1.000,"P-39-1",           440,       26.0130,       105.717,            0.,NA,NA,"",   699.186E+03,  -727.491E+03,  -727.491E+03
C:/temp/Job-39.odb,Step-1,Increment      1: Step Time =    1.000,"P-39-1",           441,       30.6832,       125.566,            0.,NA,NA,"",   1.32038E+06,  -1.34440E+06,  -1.34440E+06
C:/temp/Job-39.odb,Step-1,Increment      1: Step Time =    1.000,"P-39-1",           442,       84.3906,       173.358,            0.,NA,NA,"",   4.38787E+06,   4.36275E+06,   4.36275E+06
C:/temp/Job-39.odb,Step-1,Increment      1: Step Time =    1.000,"P-39-1",           443,       94.8305,       174.292,            0.,NA,NA,"",   6.08544E+06,   6.15969E+06,   6.15969E+06
C:/temp/Job-39.odb,Step-1,Increment      1: Step Time =    1.000,"P-39-1",           444,       69.2198,       168.069,            0.,NA,NA,"",   1.79435E+06,   1.57230E+06,   1.57230E+06
C:/temp/Job-39.odb,Step-1,Increment      1: Step Time =    1.000,"P-39-1",           445,       34.6045,       135.114,            0.,NA,NA,"",   1.72880E+06,  -1.75827E+06,  -1.75827E+06
C:/temp/Job-39.odb,Step-1,Increment      1: Step Time =    1.000,"P-39-1",           446,       152.457,       152.556,            0.,NA,NA,"",   3.25046E+06,   3.27815E+06,   3.27815E+06
C:/temp/Job-39.odb,Step-1,Increment      1: Step Time =    1.000,"P-39-1",           447,       110.254,       174.002,            0.,NA,NA,"",   7.25243E+06,   7.41636E+06,   7.41636E+06
C:/temp/Job-39.odb,Step-1,Increment      1: Step Time =    1.000,"P-39-1",           448,       167.563,       69.2543,            0.,NA,NA,"",   1.55011E+06,  -1.22727E+06,  -1.22727E+06
C:/temp/Job-39.odb,Step-1,Increment      1: Step Time =    1.000,"P-39-1",           449,       140.197,       162.733,            0.,NA,NA,"",   5.17743E+06,   5.28593E+06,   5.28593E+06
C:/temp/Job-39.odb,Step-1,Increment      1: Step Time =    1.000,"P-39-1",           450,       148.963,       43.2525,            0.,NA,NA,"",   3.86047E+06,   3.91514E+06,   3.91514E+06
C:/temp/Job-39.odb,Step-1,Increment      1: Step Time =    1.000,"P-39-1",           451,       173.261,       116.221,            0.,NA,NA,"",   3.10014E+06,  -3.03765E+06,  -3.03765E+06
C:/temp/Job-39.odb,Step-1,Increment      1: Step Time =    1.000,"P-39-1",           452,       78.4166,       28.6177,            0.,NA,NA,"",   3.32115E+06,   3.24615E+06,   3.24615E+06
C:/temp/Job-39.odb,Step-1,Increment      1: Step Time =    1.000,"P-39-1",           453,       120.788,       171.772,            0.,NA,NA,"",   7.11617E+06,   7.29040E+06,   7.29040E+06
C:/temp/Job-39.odb,Step-1,Increment      1: Step Time =    1.000,"P-39-1",           454,       173.537,       89.6565,            0.,NA,NA,"",   3.71221E+06,  -3.73526E+06,  -3.73526E+06
C:/temp/Job-39.odb,Step-1,Increment      1: Step Time =    1.000,"P-39-1",           455,       50.5381,       156.680,            0.,NA,NA,"",   1.62586E+06,  -1.57153E+06,  -1.57153E+06
C:/temp/Job-39.odb,Step-1,Increment      1: Step Time =    1.000,"P-39-1",           456,       162.926,       59.6767,            0.,NA,NA,"",   1.58111E+06,   1.35720E+06,   1.35720E+06
C:/temp/Job-39.odb,Step-1,Increment      1: Step Time =    1.000,"P-39-1",           457,       116.234,       26.4392,            0.,NA,NA,"",   7.08136E+06,   7.26442E+06,   7.26442E+06
C:/temp/Job-39.odb,Step-1,Increment      1: Step Time =    1.000,"P-39-1",           458,       68.8406,       32.9082,            0.,NA,NA,"",   1.54041E+06,   1.33452E+06,   1.33452E+06
C:/temp/Job-39.odb,Step-1,Increment      1: Step Time =    1.000,"P-39-1",           459,       126.353,       30.6548,            0.,NA,NA,"",   6.92789E+06,   7.08292E+06,   7.08292E+06
C:/temp/Job-39.odb,Step-1,Increment      1: Step Time =    1.000,"P-39-1",           460,       104.875,       25.4582,            0.,NA,NA,"",   7.00335E+06,   7.14579E+06,   7.14579E+06
C:/temp/Job-39.odb,Step-1,Increment      1: Step Time =    1.000,"P-39-1",           461,       55.1299,       40.2402,            0.,NA,NA,"",   1.45634E+06,  -1.32317E+06,  -1.32317E+06
C:/temp/Job-39.odb,Step-1,Increment      1: Step Time =    1.000,"P-39-1",           462,       99.4874,       25.6004,            0.,NA,NA,"",   6.67082E+06,   6.77515E+06,   6.77515E+06
C:/temp/Job-39.odb,Step-1,Increment      1: Step Time =    1.000,"P-39-1",           463,       173.861,       100.042,            0.,NA,NA,"",   4.23661E+06,  -4.28768E+06,  -4.28768E+06
C:/temp/Job-39.odb,Step-1,Increment      1: Step Time =    1.000,"P-39-1",           464,       88.9758,       25.9839,            0.,NA,NA,"",   5.16560E+06,   5.18503E+06,   5.18503E+06
C:/temp/Job-39.odb,Step-1,Increment      1: Step Time =    1.000,"P-39-1",           465,       169.670,       74.0561,            0.,NA,NA,"",   2.09618E+06,  -1.91205E+06,  -1.91205E+06
C:/temp/Job-39.odb,Step-1,Increment      1: Step Time =    1.000,"P-39-1",           466,       83.5333,       26.7736,            0.,NA,NA,"",   4.27536E+06,   4.24277E+06,   4.24277E+06
C:/temp/Job-39.odb,Step-1,Increment      1: Step Time =    1.000,"P-39-1",           467,       160.276,       54.9732,            0.,NA,NA,"",   2.09682E+06,   1.98403E+06,   1.98403E+06
C:/temp/Job-39.odb,Step-1,Increment      1: Step Time =    1.000,"P-39-1",           468,       174.063,       105.184,            0.,NA,NA,"",   4.00603E+06,  -4.05290E+06,  -4.05290E+06
C:/temp/Job-39.odb,Step-1,Increment      1: Step Time =    1.000,"P-39-1",           469,       130.960,       32.8786,            0.,NA,NA,"",   6.52632E+06,   6.65616E+06,   6.65616E+06
C:/temp/Job-39.odb,Step-1,Increment      1: Step Time =    1.000,"P-39-1",           470,       59.7148,       37.6037,            0.,NA,NA,"",   1.23239E+06,  -561.467E+03,  -561.467E+03
C:/temp/Job-39.odb,Step-1,Increment      1: Step Time =    1.000,"P-39-1",           471,       173.977,       110.572,            0.,NA,NA,"",   3.56519E+06,  -3.57520E+06,  -3.57520E+06
C:/temp/Job-39.odb,Step-1,Increment      1: Step Time =    1.000,"P-39-1",           472,       172.939,       84.2930,            0.,NA,NA,"",   3.22096E+06,  -3.17782E+06,  -3.17782E+06
C:/temp/Job-39.odb,Step-1,Increment      1: Step Time =    1.000,"P-39-1",           473,       173.742,       94.8928,            0.,NA,NA,"",   4.10569E+06,  -4.16341E+06,  -4.16341E+06
C:/temp/Job-39.odb,Step-1,Increment      1: Step Time =    1.000,"P-39-1",           474,       94.2957,       25.7153,            0.,NA,NA,"",   6.01091E+06,   6.07265E+06,   6.07265E+06
C:/temp/Job-39.odb,Step-1,Increment      1: Step Time =    1.000,"P-39-1",           475,       121.497,       28.4719,            0.,NA,NA,"",   7.09364E+06,   7.26529E+06,   7.26529E+06
C:/temp/Job-39.odb,Step-1,Increment      1: Step Time =    1.000,"P-39-1",           476,       125.876,       169.727,            0.,NA,NA,"",   6.90508E+06,   7.06635E+06,   7.06635E+06
C:/temp/Job-39.odb,Step-1,Increment      1: Step Time =    1.000,"P-39-1",           477,       130.758,       167.569,            0.,NA,NA,"",   6.46873E+06,   6.60909E+06,   6.60909E+06
C:/temp/Job-39.odb,Step-1,Increment      1: Step Time =    1.000,"P-39-1",           478,       171.499,       79.0532,            0.,NA,NA,"",   2.68025E+06,  -2.57527E+06,  -2.57527E+06
C:/temp/Job-39.odb,Step-1,Increment      1: Step Time =    1.000,"P-39-1",           479,       144.771,       159.892,            0.,NA,NA,"",   4.49871E+06,   4.58606E+06,   4.58606E+06
C:/temp/Job-39.odb,Step-1,Increment      1: Step Time =    1.000,"P-39-1",           480,       73.5342,       30.7342,            0.,NA,NA,"",   2.34892E+06,   2.22895E+06,   2.22895E+06
C:/temp/Job-39.odb,Step-1,Increment      1: Step Time =    1.000,"P-39-1",           481,       110.512,       25.4478,            0.,NA,NA,"",   7.06399E+06,   7.23585E+06,   7.23585E+06
C:/temp/Job-39.odb,Step-1,Increment      1: Step Time =    1.000,"P-39-1",           482,       169.448,       126.660,            0.,NA,NA,"",   2.04238E+06,  -1.82991E+06,  -1.82991E+06
C:/temp/Job-39.odb,Step-1,Increment      1: Step Time =    1.000,"P-39-1",           483,       171.549,       121.609,            0.,NA,NA,"",   2.60711E+06,  -2.47757E+06,  -2.47757E+06
C:/temp/Job-39.odb,Step-1,Increment      1: Step Time =    1.000,"P-39-1",           484,       155.859,       148.665,            0.,NA,NA,"",   2.63941E+06,   2.62604E+06,   2.62604E+06
C:/temp/Job-39.odb,Step-1,Increment      1: Step Time =    1.000,"P-39-1",           485,       115.505,       173.431,            0.,NA,NA,"",   7.19207E+06,   7.36681E+06,   7.36681E+06
C:/temp/Job-39.odb,Step-1,Increment      1: Step Time =    1.000,"P-39-1",           486,       64.2632,       35.1807,            0.,NA,NA,"",   1.15467E+06,   489.970E+03,   489.970E+03
C:/temp/Job-39.odb,Step-1,Increment      1: Step Time =    1.000,"P-39-1",           487,       135.488,       35.1710,            0.,NA,NA,"",   5.94141E+06,   6.05402E+06,   6.05402E+06
C:/temp/Job-39.odb,Step-1,Increment      1: Step Time =    1.000,"P-39-1",           488,       165.307,       64.4907,            0.,NA,NA,"",   1.31316E+06,   70.4426E+03,   70.4426E+03
C:/temp/Job-39.odb,Step-1,Increment      1: Step Time =    1.000,"P-39-1",           489,       164.636,       136.051,            0.,NA,NA,"",   1.25241E+06,   592.922E+03,   592.922E+03
C:/temp/Job-39.odb,Step-1,Increment      1: Step Time =    1.000,"P-39-1",           490,       105.081,       174.251,            0.,NA,NA,"",   7.15063E+06,   7.28890E+06,   7.28890E+06
C:/temp/Job-39.odb,Step-1,Increment      1: Step Time =    1.000,"P-39-1",           491,       194.695,       104.741,            0.,NA,NA,"",   4.56062E+06,   4.92560E+06,   4.92560E+06
C:/temp/Job-39.odb,Step-1,Increment      1: Step Time =    1.000,"P-39-1",           492,       174.685,       5.07051,            0.,NA,NA,"",   756.299E+03,   737.401E+03,   737.401E+03
C:/temp/Job-39.odb,Step-1,Increment      1: Step Time =    1.000,"P-39-1",           493,       184.843,       5.44512,            0.,NA,NA,"",   906.881E+03,   893.912E+03,   893.912E+03
C:/temp/Job-39.odb,Step-1,Increment      1: Step Time =    1.000,"P-39-1",           494,       135.558,       195.768,            0.,NA,NA,"",   864.403E+03,  -790.473E+03,  -790.473E+03
C:/temp/Job-39.odb,Step-1,Increment      1: Step Time =    1.000,"P-39-1",           495,       195.449,       134.995,            0.,NA,NA,"",   2.33144E+06,   2.60549E+06,   2.60549E+06
C:/temp/Job-39.odb,Step-1,Increment      1: Step Time =    1.000,"P-39-1",           496,       195.663,       144.802,            0.,NA,NA,"",   1.47709E+06,   1.66276E+06,   1.66276E+06
C:/temp/Job-39.odb,Step-1,Increment      1: Step Time =    1.000,"P-39-1",           497,       195.314,       154.707,            0.,NA,NA,"",   1.11108E+06,   1.21930E+06,   1.21930E+06
C:/temp/Job-39.odb,Step-1,Increment      1: Step Time =    1.000,"P-39-1",           498,       145.313,       195.635,            0.,NA,NA,"",   629.866E+03,  -183.809E+03,  -183.809E+03
C:/temp/Job-39.odb,Step-1,Increment      1: Step Time =    1.000,"P-39-1",           499,       194.688,       115.023,            0.,NA,NA,"",   4.08063E+06,   4.41684E+06,   4.41684E+06
C:/temp/Job-39.odb,Step-1,Increment      1: Step Time =    1.000,"P-39-1",           500,       164.399,       8.94295,            0.,NA,NA,"",   899.533E+03,   836.976E+03,   836.976E+03
C:/temp/Job-39.odb,Step-1,Increment      1: Step Time =    1.000,"P-39-1",           501,       125.247,       4.63069,            0.,NA,NA,"",   942.909E+03,  -809.881E+03,  -809.881E+03
C:/temp/Job-39.odb,Step-1,Increment      1: Step Time =    1.000,"P-39-1",           502,       135.267,       4.63263,            0.,NA,NA,"",   849.031E+03,  -752.009E+03,  -752.009E+03
C:/temp/Job-39.odb,Step-1,Increment      1: Step Time =    1.000,"P-39-1",           503,       115.168,       4.95682,            0.,NA,NA,"",   981.602E+03,  -582.840E+03,  -582.840E+03
C:/temp/Job-39.odb,Step-1,Increment      1: Step Time =    1.000,"P-39-1",           504,       4.76154,       54.8632,            0.,NA,NA,"",   194.848E+03,  -69.8165E+03,  -69.8165E+03
C:/temp/Job-39.odb,Step-1,Increment      1: Step Time =    1.000,"P-39-1",           505,       4.75246,       44.9982,            0.,NA,NA,"",   401.422E+03,   454.722E+03,   454.722E+03
C:/temp/Job-39.odb,Step-1,Increment      1: Step Time =    1.000,"P-39-1",           506,       9.33293,       35.2543,            0.,NA,NA,"",   1.09739E+06,   1.22251E+06,   1.22251E+06
C:/temp/Job-39.odb,Step-1,Increment      1: Step Time =    1.000,"P-39-1",           507,       4.90713,       25.1006,            0.,NA,NA,"",   2.01695E+06,   2.23313E+06,   2.23313E+06
C:/temp/Job-39.odb,Step-1,Increment      1: Step Time =    1.000,"P-39-1",           508,       5.04586,       5.03915,            0.,NA,NA,"",   4.54187E+06,   4.72333E+06,   4.72333E+06
C:/temp/Job-39.odb,Step-1,Increment      1: Step Time =    1.000,"P-39-1",           509,       15.0657,       4.98336,            0.,NA,NA,"",   4.50143E+06,   4.51918E+06,   4.51918E+06
C:/temp/Job-39.odb,Step-1,Increment      1: Step Time =    1.000,"P-39-1",           510,       54.8999,       4.75062,            0.,NA,NA,"",   4.37572E+06,   4.33970E+06,   4.33970E+06
C:/temp/Job-39.odb,Step-1,Increment      1: Step Time =    1.000,"P-39-1",           511,       44.8795,       4.70110,            0.,NA,NA,"",   4.61401E+06,   4.59396E+06,   4.59396E+06
C:/temp/Job-39.odb,Step-1,Increment      1: Step Time =    1.000,"P-39-1",           512,       74.8985,       4.43902,            0.,NA,NA,"",   3.09635E+06,   3.01894E+06,   3.01894E+06
C:/temp/Job-39.odb,Step-1,Increment      1: Step Time =    1.000,"P-39-1",           513,       84.8076,       5.02075,            0.,NA,NA,"",   2.19303E+06,   2.07380E+06,   2.07380E+06
C:/temp/Job-39.odb,Step-1,Increment      1: Step Time =    1.000,"P-39-1",           514,       5.35037,       94.6778,            0.,NA,NA,"",   384.243E+03,  -436.197E+03,  -436.197E+03
C:/temp/Job-39.odb,Step-1,Increment      1: Step Time =    1.000,"P-39-1",           515,       5.17971,       84.5061,            0.,NA,NA,"",   491.777E+03,  -549.132E+03,  -549.132E+03
C:/temp/Job-39.odb,Step-1,Increment      1: Step Time =    1.000,"P-39-1",           516,       5.09269,       104.640,            0.,NA,NA,"",   375.659E+03,  -426.887E+03,  -426.887E+03
C:/temp/Job-39.odb,Step-1,Increment      1: Step Time =    1.000,"P-39-1",           517,       4.96953,       174.124,            0.,NA,NA,"",   1.93267E+06,   2.13934E+06,   2.13934E+06
C:/temp/Job-39.odb,Step-1,Increment      1: Step Time =    1.000,"P-39-1",           518,       4.33024,       164.497,            0.,NA,NA,"",   1.06807E+06,   1.20054E+06,   1.20054E+06
C:/temp/Job-39.odb,Step-1,Increment      1: Step Time =    1.000,"P-39-1",           519,       5.54065,       184.466,            0.,NA,NA,"",   3.03234E+06,   3.29679E+06,   3.29679E+06
C:/temp/Job-39.odb,Step-1,Increment      1: Step Time =    1.000,"P-39-1",           520,       54.9710,       195.485,            0.,NA,NA,"",   4.39700E+06,   4.36274E+06,   4.36274E+06
C:/temp/Job-39.odb,Step-1,Increment      1: Step Time =    1.000,"P-39-1",           521,       45.0065,       195.317,            0.,NA,NA,"",   4.61830E+06,   4.59846E+06,   4.59846E+06
C:/temp/Job-39.odb,Step-1,Increment      1: Step Time =    1.000,"P-39-1",           522,       35.0728,       191.575,            0.,NA,NA,"",   4.20855E+06,   4.18331E+06,   4.18331E+06
C:/temp/Job-39.odb,Step-1,Increment      1: Step Time =    1.000,"P-39-1",           523,       84.5902,       194.291,            0.,NA,NA,"",   2.32333E+06,   2.19375E+06,   2.19375E+06
C:/temp/Job-39.odb,Step-1,Increment      1: Step Time =    1.000,"P-39-1",           524,       95.0106,       194.337,            0.,NA,NA,"",   1.45910E+06,   1.10264E+06,   1.10264E+06
C:/temp/Job-39.odb,Step-1,Increment      1: Step Time =    1.000,"P-39-1",           525,       25.0873,       4.74276,            0.,NA,NA,"",   4.58802E+06,   4.58715E+06,   4.58715E+06
C:/temp/Job-39.odb,Step-1,Increment      1: Step Time =    1.000,"P-39-1",           526,       34.9743,       4.57879,            0.,NA,NA,"",   4.67054E+06,   4.65913E+06,   4.65913E+06
C:/temp/Job-39.odb,Step-1,Increment      1: Step Time =    1.000,"P-39-1",           527,       95.0026,       5.26967,            0.,NA,NA,"",   1.34587E+06,   994.547E+03,   994.547E+03
C:/temp/Job-39.odb,Step-1,Increment      1: Step Time =    1.000,"P-39-1",           528,       105.206,       4.49783,            0.,NA,NA,"",   1.03004E+06,  -82.9723E+03,  -82.9723E+03
C:/temp/Job-39.odb,Step-1,Increment      1: Step Time =    1.000,"P-39-1",           529,       145.170,       4.62839,            0.,NA,NA,"",   640.346E+03,  -147.008E+03,  -147.008E+03
C:/temp/Job-39.odb,Step-1,Increment      1: Step Time =    1.000,"P-39-1",           530,       154.997,       4.52114,            0.,NA,NA,"",   451.865E+03,   159.260E+03,   159.260E+03
C:/temp/Job-39.odb,Step-1,Increment      1: Step Time =    1.000,"P-39-1",           531,       194.997,       5.08252,            0.,NA,NA,"",   992.015E+03,   978.601E+03,   978.601E+03
C:/temp/Job-39.odb,Step-1,Increment      1: Step Time =    1.000,"P-39-1",           532,       195.249,       15.1077,            0.,NA,NA,"",   1.07173E+06,   1.00898E+06,   1.00898E+06
C:/temp/Job-39.odb,Step-1,Increment      1: Step Time =    1.000,"P-39-1",           533,       195.573,       25.0425,            0.,NA,NA,"",   1.12740E+06,   1.03448E+06,   1.03448E+06
C:/temp/Job-39.odb,Step-1,Increment      1: Step Time =    1.000,"P-39-1",           534,       195.516,       34.7858,            0.,NA,NA,"",   1.09536E+06,   1.07212E+06,   1.07212E+06
C:/temp/Job-39.odb,Step-1,Increment      1: Step Time =    1.000,"P-39-1",           535,       195.028,       44.2892,            0.,NA,NA,"",   1.11070E+06,   1.21070E+06,   1.21070E+06
C:/temp/Job-39.odb,Step-1,Increment      1: Step Time =    1.000,"P-39-1",           536,       193.176,       54.5802,            0.,NA,NA,"",   1.63958E+06,   1.76850E+06,   1.76850E+06
C:/temp/Job-39.odb,Step-1,Increment      1: Step Time =    1.000,"P-39-1",           537,       195.269,       65.2042,            0.,NA,NA,"",   2.34151E+06,   2.60950E+06,   2.60950E+06
C:/temp/Job-39.odb,Step-1,Increment      1: Step Time =    1.000,"P-39-1",           538,       195.457,       74.8128,            0.,NA,NA,"",   3.33521E+06,   3.66281E+06,   3.66281E+06
C:/temp/Job-39.odb,Step-1,Increment      1: Step Time =    1.000,"P-39-1",           539,       195.051,       84.5524,            0.,NA,NA,"",   4.15185E+06,   4.49934E+06,   4.49934E+06
C:/temp/Job-39.odb,Step-1,Increment      1: Step Time =    1.000,"P-39-1",           540,       195.282,       94.6050,            0.,NA,NA,"",   4.71408E+06,   5.08360E+06,   5.08360E+06
C:/temp/Job-39.odb,Step-1,Increment      1: Step Time =    1.000,"P-39-1",           541,       194.895,       164.764,            0.,NA,NA,"",   1.11251E+06,   1.09880E+06,   1.09880E+06
C:/temp/Job-39.odb,Step-1,Increment      1: Step Time =    1.000,"P-39-1",           542,       155.097,       195.442,            0.,NA,NA,"",   458.949E+03,   155.786E+03,   155.786E+03
C:/temp/Job-39.odb,Step-1,Increment      1: Step Time =    1.000,"P-39-1",           543,       194.880,       174.863,            0.,NA,NA,"",   1.12823E+06,   1.04456E+06,   1.04456E+06
C:/temp/Job-39.odb,Step-1,Increment      1: Step Time =    1.000,"P-39-1",           544,       164.890,       195.298,            0.,NA,NA,"",   548.926E+03,   510.539E+03,   510.539E+03
C:/temp/Job-39.odb,Step-1,Increment      1: Step Time =    1.000,"P-39-1",           545,       194.933,       184.898,            0.,NA,NA,"",   1.07385E+06,   1.01204E+06,   1.01204E+06
C:/temp/Job-39.odb,Step-1,Increment      1: Step Time =    1.000,"P-39-1",           546,       174.776,       194.850,            0.,NA,NA,"",   759.151E+03,   739.122E+03,   739.122E+03
C:/temp/Job-39.odb,Step-1,Increment      1: Step Time =    1.000,"P-39-1",           547,       194.963,       194.938,            0.,NA,NA,"",   990.750E+03,   977.576E+03,   977.576E+03
C:/temp/Job-39.odb,Step-1,Increment      1: Step Time =    1.000,"P-39-1",           548,       184.869,       194.739,            0.,NA,NA,"",   902.049E+03,   889.644E+03,   889.644E+03
C:/temp/Job-39.odb,Step-1,Increment      1: Step Time =    1.000,"P-39-1",           549,       105.491,       194.207,            0.,NA,NA,"",   1.14189E+06,   182.059E+03,   182.059E+03
C:/temp/Job-39.odb,Step-1,Increment      1: Step Time =    1.000,"P-39-1",           550,       125.765,       195.378,            0.,NA,NA,"",   900.223E+03,  -807.950E+03,  -807.950E+03
C:/temp/Job-39.odb,Step-1,Increment      1: Step Time =    1.000,"P-39-1",           551,       64.8287,       195.430,            0.,NA,NA,"",   3.88551E+06,   3.83539E+06,   3.83539E+06
C:/temp/Job-39.odb,Step-1,Increment      1: Step Time =    1.000,"P-39-1",           552,       74.6094,       195.160,            0.,NA,NA,"",   3.14875E+06,   3.05749E+06,   3.05749E+06
C:/temp/Job-39.odb,Step-1,Increment      1: Step Time =    1.000,"P-39-1",           553,       25.2497,       195.338,            0.,NA,NA,"",   4.59993E+06,   4.59611E+06,   4.59611E+06
C:/temp/Job-39.odb,Step-1,Increment      1: Step Time =    1.000,"P-39-1",           554,       15.3446,       194.859,            0.,NA,NA,"",   4.49219E+06,   4.50954E+06,   4.50954E+06
C:/temp/Job-39.odb,Step-1,Increment      1: Step Time =    1.000,"P-39-1",           555,       5.20018,       194.845,            0.,NA,NA,"",   4.52924E+06,   4.70940E+06,   4.70940E+06
C:/temp/Job-39.odb,Step-1,Increment      1: Step Time =    1.000,"P-39-1",           556,       4.02495,       154.988,            0.,NA,NA,"",   414.081E+03,   469.896E+03,   469.896E+03
C:/temp/Job-39.odb,Step-1,Increment      1: Step Time =    1.000,"P-39-1",           557,       4.16842,       145.386,            0.,NA,NA,"",   176.413E+03,  -58.7461E+03,  -58.7461E+03
C:/temp/Job-39.odb,Step-1,Increment      1: Step Time =    1.000,"P-39-1",           558,       4.93890,       135.679,            0.,NA,NA,"",   453.916E+03,  -461.029E+03,  -461.029E+03
C:/temp/Job-39.odb,Step-1,Increment      1: Step Time =    1.000,"P-39-1",           559,       5.49671,       125.572,            0.,NA,NA,"",   560.785E+03,  -596.051E+03,  -596.051E+03
C:/temp/Job-39.odb,Step-1,Increment      1: Step Time =    1.000,"P-39-1",           560,       5.75999,       115.021,            0.,NA,NA,"",   488.485E+03,  -546.769E+03,  -546.769E+03
C:/temp/Job-39.odb,Step-1,Increment      1: Step Time =    1.000,"P-39-1",           561,       4.95783,       74.5950,            0.,NA,NA,"",   557.361E+03,  -594.493E+03,  -594.493E+03
C:/temp/Job-39.odb,Step-1,Increment      1: Step Time =    1.000,"P-39-1",           562,       4.85061,       64.7811,            0.,NA,NA,"",   467.652E+03,  -478.936E+03,  -478.936E+03
C:/temp/Job-39.odb,Step-1,Increment      1: Step Time =    1.000,"P-39-1",           563,       195.083,       125.107,            0.,NA,NA,"",   3.31340E+06,   3.62839E+06,   3.62839E+06
C:/temp/Job-39.odb,Step-1,Increment      1: Step Time =    1.000,"P-39-1",           564,       5.11050,       15.1101,            0.,NA,NA,"",   3.06528E+06,   3.33901E+06,   3.33901E+06
C:/temp/Job-39.odb,Step-1,Increment      1: Step Time =    1.000,"P-39-1",           565,       64.9751,       4.57550,            0.,NA,NA,"",   3.88100E+06,   3.82962E+06,   3.82962E+06
C:/temp/Job-39.odb,Step-1,Increment      1: Step Time =    1.000,"P-39-1",           566,       115.731,       194.470,            0.,NA,NA,"",   1.04370E+06,  -421.058E+03,  -421.058E+03
C:/temp/Job-39.odb,Step-1,Increment      1: Step Time =    1.000,"P-39-1",           567,       189.956,       5.24266,            0.,NA,NA,"",   956.765E+03,   943.295E+03,   943.295E+03
C:/temp/Job-39.odb,Step-1,Increment      1: Step Time =    1.000,"P-39-1",           568,       179.745,       5.55298,            0.,NA,NA,"",   844.148E+03,   829.133E+03,   829.133E+03
C:/temp/Job-39.odb,Step-1,Increment      1: Step Time =    1.000,"P-39-1",           569,       169.071,       9.13006,            0.,NA,NA,"",   931.940E+03,   880.986E+03,   880.986E+03
C:/temp/Job-39.odb,Step-1,Increment      1: Step Time =    1.000,"P-39-1",           570,       159.855,       4.47026,            0.,NA,NA,"",   448.823E+03,   328.077E+03,   328.077E+03
C:/temp/Job-39.odb,Step-1,Increment      1: Step Time =    1.000,"P-39-1",           571,       150.092,       4.56253,            0.,NA,NA,"",   533.642E+03,   15.2553E+03,   15.2553E+03
C:/temp/Job-39.odb,Step-1,Increment      1: Step Time =    1.000,"P-39-1",           572,       140.233,       4.65470,            0.,NA,NA,"",   750.051E+03,  -461.243E+03,  -461.243E+03
C:/temp/Job-39.odb,Step-1,Increment      1: Step Time =    1.000,"P-39-1",           573,       130.291,       4.58564,            0.,NA,NA,"",   927.980E+03,  -849.911E+03,  -849.911E+03
C:/temp/Job-39.odb,Step-1,Increment      1: Step Time =    1.000,"P-39-1",           574,       120.170,       4.81597,            0.,NA,NA,"",   945.262E+03,  -691.442E+03,  -691.442E+03
C:/temp/Job-39.odb,Step-1,Increment      1: Step Time =    1.000,"P-39-1",           575,       110.186,       4.65132,            0.,NA,NA,"",   1.01102E+06,  -389.552E+03,  -389.552E+03
C:/temp/Job-39.odb,Step-1,Increment      1: Step Time =    1.000,"P-39-1",           576,       100.131,       4.76927,            0.,NA,NA,"",   1.09888E+06,   352.012E+03,   352.012E+03
C:/temp/Job-39.odb,Step-1,Increment      1: Step Time =    1.000,"P-39-1",           577,       89.8762,       5.26569,            0.,NA,NA,"",   1.74939E+06,   1.61471E+06,   1.61471E+06
C:/temp/Job-39.odb,Step-1,Increment      1: Step Time =    1.000,"P-39-1",           578,       79.8503,       4.69538,            0.,NA,NA,"",   2.63992E+06,   2.54246E+06,   2.54246E+06
C:/temp/Job-39.odb,Step-1,Increment      1: Step Time =    1.000,"P-39-1",           579,       69.9450,       4.40478,            0.,NA,NA,"",   3.52662E+06,   3.46162E+06,   3.46162E+06
C:/temp/Job-39.odb,Step-1,Increment      1: Step Time =    1.000,"P-39-1",           580,       59.9479,       4.69204,            0.,NA,NA,"",   4.16203E+06,   4.11931E+06,   4.11931E+06
C:/temp/Job-39.odb,Step-1,Increment      1: Step Time =    1.000,"P-39-1",           581,       49.8700,       4.75204,            0.,NA,NA,"",   4.52118E+06,   4.49501E+06,   4.49501E+06
C:/temp/Job-39.odb,Step-1,Increment      1: Step Time =    1.000,"P-39-1",           582,       39.9319,       4.62091,            0.,NA,NA,"",   4.66427E+06,   4.64817E+06,   4.64817E+06
C:/temp/Job-39.odb,Step-1,Increment      1: Step Time =    1.000,"P-39-1",           583,       30.0387,       4.62323,            0.,NA,NA,"",   4.63869E+06,   4.63180E+06,   4.63180E+06
C:/temp/Job-39.odb,Step-1,Increment      1: Step Time =    1.000,"P-39-1",           584,       20.0741,       4.86965,            0.,NA,NA,"",   4.54152E+06,   4.54551E+06,   4.54551E+06
C:/temp/Job-39.odb,Step-1,Increment      1: Step Time =    1.000,"P-39-1",           585,       10.0666,       5.03123,            0.,NA,NA,"",   4.54160E+06,   4.57849E+06,   4.57849E+06
C:/temp/Job-39.odb,Step-1,Increment      1: Step Time =    1.000,"P-39-1",           586,       194.964,       189.927,            0.,NA,NA,"",   1.02664E+06,   991.324E+03,   991.324E+03
C:/temp/Job-39.odb,Step-1,Increment      1: Step Time =    1.000,"P-39-1",           587,       194.882,       179.878,            0.,NA,NA,"",   1.11031E+06,   1.02894E+06,   1.02894E+06
C:/temp/Job-39.odb,Step-1,Increment      1: Step Time =    1.000,"P-39-1",           588,       194.902,       169.839,            0.,NA,NA,"",   1.12768E+06,   1.06604E+06,   1.06604E+06
C:/temp/Job-39.odb,Step-1,Increment      1: Step Time =    1.000,"P-39-1",           589,       194.938,       159.694,            0.,NA,NA,"",   1.09565E+06,   1.14558E+06,   1.14558E+06
C:/temp/Job-39.odb,Step-1,Increment      1: Step Time =    1.000,"P-39-1",           590,       195.593,       149.750,            0.,NA,NA,"",   1.22167E+06,   1.36701E+06,   1.36701E+06
C:/temp/Job-39.odb,Step-1,Increment      1: Step Time =    1.000,"P-39-1",           591,       195.600,       139.893,            0.,NA,NA,"",   1.86548E+06,   2.10097E+06,   2.10097E+06
C:/temp/Job-39.odb,Step-1,Increment      1: Step Time =    1.000,"P-39-1",           592,       195.294,       130.070,            0.,NA,NA,"",   2.82634E+06,   3.12599E+06,   3.12599E+06
C:/temp/Job-39.odb,Step-1,Increment      1: Step Time =    1.000,"P-39-1",           593,       194.892,       120.083,            0.,NA,NA,"",   3.73801E+06,   4.06635E+06,   4.06635E+06
C:/temp/Job-39.odb,Step-1,Increment      1: Step Time =    1.000,"P-39-1",           594,       194.595,       109.893,            0.,NA,NA,"",   4.34777E+06,   4.69911E+06,   4.69911E+06
C:/temp/Job-39.odb,Step-1,Increment      1: Step Time =    1.000,"P-39-1",           595,       195.017,       99.6536,            0.,NA,NA,"",   4.71213E+06,   5.07609E+06,   5.07609E+06
C:/temp/Job-39.odb,Step-1,Increment      1: Step Time =    1.000,"P-39-1",           596,       195.262,       89.5937,            0.,NA,NA,"",   4.49704E+06,   4.86370E+06,   4.86370E+06
C:/temp/Job-39.odb,Step-1,Increment      1: Step Time =    1.000,"P-39-1",           597,       195.260,       79.6702,            0.,NA,NA,"",   3.77425E+06,   4.10918E+06,   4.10918E+06
C:/temp/Job-39.odb,Step-1,Increment      1: Step Time =    1.000,"P-39-1",           598,       195.500,       69.9925,            0.,NA,NA,"",   2.84130E+06,   3.14580E+06,   3.14580E+06
C:/temp/Job-39.odb,Step-1,Increment      1: Step Time =    1.000,"P-39-1",           599,       194.643,       60.2549,            0.,NA,NA,"",   1.91118E+06,   2.12613E+06,   2.12613E+06
C:/temp/Job-39.odb,Step-1,Increment      1: Step Time =    1.000,"P-39-1",           600,       194.477,       49.1591,            0.,NA,NA,"",   1.28359E+06,   1.41008E+06,   1.41008E+06
C:/temp/Job-39.odb,Step-1,Increment      1: Step Time =    1.000,"P-39-1",           601,       195.347,       39.5669,            0.,NA,NA,"",   1.07469E+06,   1.11724E+06,   1.11724E+06
C:/temp/Job-39.odb,Step-1,Increment      1: Step Time =    1.000,"P-39-1",           602,       195.613,       29.9580,            0.,NA,NA,"",   1.12000E+06,   1.04768E+06,   1.04768E+06
C:/temp/Job-39.odb,Step-1,Increment      1: Step Time =    1.000,"P-39-1",           603,       195.440,       20.0981,            0.,NA,NA,"",   1.10848E+06,   1.02239E+06,   1.02239E+06
C:/temp/Job-39.odb,Step-1,Increment      1: Step Time =    1.000,"P-39-1",           604,       195.085,       10.1182,            0.,NA,NA,"",   1.02715E+06,   991.824E+03,   991.824E+03
C:/temp/Job-39.odb,Step-1,Increment      1: Step Time =    1.000,"P-39-1",           605,       10.3008,       194.798,            0.,NA,NA,"",   4.52532E+06,   4.56095E+06,   4.56095E+06
C:/temp/Job-39.odb,Step-1,Increment      1: Step Time =    1.000,"P-39-1",           606,       20.3327,       195.027,            0.,NA,NA,"",   4.53843E+06,   4.54188E+06,   4.54188E+06
C:/temp/Job-39.odb,Step-1,Increment      1: Step Time =    1.000,"P-39-1",           607,       30.5386,       191.304,            0.,NA,NA,"",   4.16601E+06,   4.15300E+06,   4.15300E+06
C:/temp/Job-39.odb,Step-1,Increment      1: Step Time =    1.000,"P-39-1",           608,       39.9858,       195.339,            0.,NA,NA,"",   4.66325E+06,   4.64700E+06,   4.64700E+06
C:/temp/Job-39.odb,Step-1,Increment      1: Step Time =    1.000,"P-39-1",           609,       50.0069,       195.428,            0.,NA,NA,"",   4.54195E+06,   4.51490E+06,   4.51490E+06
C:/temp/Job-39.odb,Step-1,Increment      1: Step Time =    1.000,"P-39-1",           610,       59.9144,       195.449,            0.,NA,NA,"",   4.17529E+06,   4.13487E+06,   4.13487E+06
C:/temp/Job-39.odb,Step-1,Increment      1: Step Time =    1.000,"P-39-1",           611,       69.7500,       195.367,            0.,NA,NA,"",   3.53633E+06,   3.46998E+06,   3.46998E+06
C:/temp/Job-39.odb,Step-1,Increment      1: Step Time =    1.000,"P-39-1",           612,       79.5771,       194.794,            0.,NA,NA,"",   2.74457E+06,   2.63028E+06,   2.63028E+06
C:/temp/Job-39.odb,Step-1,Increment      1: Step Time =    1.000,"P-39-1",           613,       89.7867,       194.295,            0.,NA,NA,"",   1.86661E+06,   1.71806E+06,   1.71806E+06
C:/temp/Job-39.odb,Step-1,Increment      1: Step Time =    1.000,"P-39-1",           614,       100.244,       194.260,            0.,NA,NA,"",   1.22821E+06,   556.610E+03,   556.610E+03
C:/temp/Job-39.odb,Step-1,Increment      1: Step Time =    1.000,"P-39-1",           615,       110.635,       194.436,            0.,NA,NA,"",   1.11237E+06,  -150.826E+03,  -150.826E+03
C:/temp/Job-39.odb,Step-1,Increment      1: Step Time =    1.000,"P-39-1",           616,       120.770,       194.900,            0.,NA,NA,"",   924.353E+03,  -637.970E+03,  -637.970E+03
C:/temp/Job-39.odb,Step-1,Increment      1: Step Time =    1.000,"P-39-1",           617,       130.675,       195.673,            0.,NA,NA,"",   925.573E+03,  -871.328E+03,  -871.328E+03
C:/temp/Job-39.odb,Step-1,Increment      1: Step Time =    1.000,"P-39-1",           618,       140.420,       195.743,            0.,NA,NA,"",   748.102E+03,  -502.070E+03,  -502.070E+03
C:/temp/Job-39.odb,Step-1,Increment      1: Step Time =    1.000,"P-39-1",           619,       150.214,       195.531,            0.,NA,NA,"",   529.987E+03,  -2.79223E+03,  -2.79223E+03
C:/temp/Job-39.odb,Step-1,Increment      1: Step Time =    1.000,"P-39-1",           620,       159.970,       195.385,            0.,NA,NA,"",   462.694E+03,   335.971E+03,   335.971E+03
C:/temp/Job-39.odb,Step-1,Increment      1: Step Time =    1.000,"P-39-1",           621,       169.810,       195.132,            0.,NA,NA,"",   658.997E+03,   632.297E+03,   632.297E+03
C:/temp/Job-39.odb,Step-1,Increment      1: Step Time =    1.000,"P-39-1",           622,       179.773,       194.592,            0.,NA,NA,"",   839.865E+03,   824.785E+03,   824.785E+03
C:/temp/Job-39.odb,Step-1,Increment      1: Step Time =    1.000,"P-39-1",           623,       189.948,       194.875,            0.,NA,NA,"",   953.598E+03,   940.792E+03,   940.792E+03
C:/temp/Job-39.odb,Step-1,Increment      1: Step Time =    1.000,"P-39-1",           624,       5.09013,       10.0699,            0.,NA,NA,"",   3.72885E+06,   3.99682E+06,   3.99682E+06
C:/temp/Job-39.odb,Step-1,Increment      1: Step Time =    1.000,"P-39-1",           625,       5.07093,       20.1049,            0.,NA,NA,"",   2.52441E+06,   2.77400E+06,   2.77400E+06
C:/temp/Job-39.odb,Step-1,Increment      1: Step Time =    1.000,"P-39-1",           626,       9.44182,       30.3398,            0.,NA,NA,"",   1.55111E+06,   1.70341E+06,   1.70341E+06
C:/temp/Job-39.odb,Step-1,Increment      1: Step Time =    1.000,"P-39-1",           627,       4.69881,       40.0733,            0.,NA,NA,"",   731.521E+03,   826.672E+03,   826.672E+03
C:/temp/Job-39.odb,Step-1,Increment      1: Step Time =    1.000,"P-39-1",           628,       4.79101,       49.9338,            0.,NA,NA,"",   185.939E+03,   194.057E+03,   194.057E+03
C:/temp/Job-39.odb,Step-1,Increment      1: Step Time =    1.000,"P-39-1",           629,       4.71816,       59.8141,            0.,NA,NA,"",   346.345E+03,  -335.932E+03,  -335.932E+03
C:/temp/Job-39.odb,Step-1,Increment      1: Step Time =    1.000,"P-39-1",           630,       4.96698,       69.6590,            0.,NA,NA,"",   533.451E+03,  -558.801E+03,  -558.801E+03
C:/temp/Job-39.odb,Step-1,Increment      1: Step Time =    1.000,"P-39-1",           631,       4.96816,       79.5828,            0.,NA,NA,"",   539.362E+03,  -587.782E+03,  -587.782E+03
C:/temp/Job-39.odb,Step-1,Increment      1: Step Time =    1.000,"P-39-1",           632,       5.35520,       89.5312,            0.,NA,NA,"",   434.532E+03,  -495.263E+03,  -495.263E+03
C:/temp/Job-39.odb,Step-1,Increment      1: Step Time =    1.000,"P-39-1",           633,       5.08304,       99.6554,            0.,NA,NA,"",   360.859E+03,  -405.073E+03,  -405.073E+03
C:/temp/Job-39.odb,Step-1,Increment      1: Step Time =    1.000,"P-39-1",           634,       5.31027,       109.726,            0.,NA,NA,"",   425.231E+03,  -484.583E+03,  -484.583E+03
C:/temp/Job-39.odb,Step-1,Increment      1: Step Time =    1.000,"P-39-1",           635,       5.62408,       120.295,            0.,NA,NA,"",   541.488E+03,  -590.168E+03,  -590.168E+03
C:/temp/Job-39.odb,Step-1,Increment      1: Step Time =    1.000,"P-39-1",           636,       5.27817,       130.712,            0.,NA,NA,"",   531.552E+03,  -552.942E+03,  -552.942E+03
C:/temp/Job-39.odb,Step-1,Increment      1: Step Time =    1.000,"P-39-1",           637,       4.50171,       140.504,            0.,NA,NA,"",   324.540E+03,  -313.213E+03,  -313.213E+03
C:/temp/Job-39.odb,Step-1,Increment      1: Step Time =    1.000,"P-39-1",           638,       4.00274,       150.231,            0.,NA,NA,"",   189.882E+03,   207.736E+03,   207.736E+03
C:/temp/Job-39.odb,Step-1,Increment      1: Step Time =    1.000,"P-39-1",           639,       4.14449,       159.732,            0.,NA,NA,"",   718.514E+03,   812.726E+03,   812.726E+03
C:/temp/Job-39.odb,Step-1,Increment      1: Step Time =    1.000,"P-39-1",           640,       4.58963,       169.233,            0.,NA,NA,"",   1.46567E+06,   1.63563E+06,   1.63563E+06
C:/temp/Job-39.odb,Step-1,Increment      1: Step Time =    1.000,"P-39-1",           641,       5.51989,       179.177,            0.,NA,NA,"",   2.46339E+06,   2.70269E+06,   2.70269E+06
C:/temp/Job-39.odb,Step-1,Increment      1: Step Time =    1.000,"P-39-1",           642,       5.38277,       189.692,            0.,NA,NA,"",   3.71104E+06,   3.97328E+06,   3.97328E+06
C:/temp/Job-39.odb,Step-1,Increment      1: Step Time =    1.000,"P-39-1",           643,       152.950,       46.9821,            0.,NA,NA,"",   3.22557E+06,   3.24496E+06,   3.24496E+06
C:/temp/Job-39.odb,Step-1,Increment      1: Step Time =    1.000,"P-39-1",           644,       46.2614,       153.094,            0.,NA,NA,"",   1.74202E+06,  -1.73962E+06,  -1.73962E+06
C:/temp/Job-39.odb,Step-1,Increment      1: Step Time =    1.000,"P-39-1",           645,       59.2971,       163.526,            0.,NA,NA,"",   1.35228E+06,  -434.481E+03,  -434.481E+03
C:/temp/Job-39.odb,Step-1,Increment      1: Step Time =    1.000,"P-39-1",           646,       139.983,       37.5933,            0.,NA,NA,"",   5.25337E+06,   5.35604E+06,   5.35604E+06
C:/temp/Job-39.odb,Step-1,Increment      1: Step Time =    1.000,"P-39-1",           647,       28.6259,       131.551,            0.,NA,NA,"",   1.24778E+06,  -1.27593E+06,  -1.27593E+06
C:/temp/Job-39.odb,Step-1,Increment      1: Step Time =    1.000,"P-39-1",           648,       171.498,       67.5564,            0.,NA,NA,"",   2.04634E+06,   120.046E+03,   120.046E+03
C:/temp/Job-39.odb,Step-1,Increment      1: Step Time =    1.000,"P-39-1",           649,       66.6239,       29.4159,            0.,NA,NA,"",   2.34997E+06,   1.97669E+06,   1.97669E+06
C:/temp/Job-39.odb,Step-1,Increment      1: Step Time =    1.000,"P-39-1",           650,       56.0911,       168.839,            0.,NA,NA,"",   2.00337E+06,   1.12816E+06,   1.12816E+06
C:/temp/Job-39.odb,Step-1,Increment      1: Step Time =    1.000,"P-39-1",           651,       167.178,       57.6490,            0.,NA,NA,"",   2.22795E+06,   1.80324E+06,   1.80324E+06
C:/temp/Job-39.odb,Step-1,Increment      1: Step Time =    1.000,"P-39-1",           652,       31.4025,       56.6055,            0.,NA,NA,"",   1.12513E+06,  -1.14408E+06,  -1.14408E+06
C:/temp/Job-39.odb,Step-1,Increment      1: Step Time =    1.000,"P-39-1",           653,       57.5138,       33.9060,            0.,NA,NA,"",   1.63324E+06,   636.917E+03,   636.917E+03
C:/temp/Job-39.odb,Step-1,Increment      1: Step Time =    1.000,"P-39-1",           654,       141.920,       33.8117,            0.,NA,NA,"",   4.33796E+06,   4.47692E+06,   4.47692E+06
C:/temp/Job-39.odb,Step-1,Increment      1: Step Time =    1.000,"P-39-1",           655,       32.2936,       141.441,            0.,NA,NA,"",   1.29868E+06,  -1.32907E+06,  -1.32907E+06
C:/temp/Job-39.odb,Step-1,Increment      1: Step Time =    1.000,"P-39-1",           656,       152.024,       159.652,            0.,NA,NA,"",   3.36005E+06,   3.39815E+06,   3.39815E+06
C:/temp/Job-39.odb,Step-1,Increment      1: Step Time =    1.000,"P-39-1",           657,       159.021,       151.613,            0.,NA,NA,"",   2.69296E+06,   2.60250E+06,   2.60250E+06
C:/temp/Job-39.odb,Step-1,Increment      1: Step Time =    1.000,"P-39-1",           658,       39.5543,       47.9881,            0.,NA,NA,"",   1.19708E+06,  -1.19212E+06,  -1.19212E+06
C:/temp/Job-39.odb,Step-1,Increment      1: Step Time =    1.000,"P-39-1",           659,       46.6943,       38.6271,            0.,NA,NA,"",   1.30577E+06,  -244.018E+03,  -244.018E+03
C:/temp/Job-39.odb,Step-1,Increment      1: Step Time =    1.000,"P-39-1",           660,       47.1584,       160.372,            0.,NA,NA,"",   1.26494E+06,  -986.879E+03,  -986.879E+03
C:/temp/Job-39.odb,Step-1,Increment      1: Step Time =    1.000,"P-39-1",           661,       36.5503,       153.187,            0.,NA,NA,"",   956.729E+03,  -892.885E+03,  -892.885E+03
C:/temp/Job-39.odb,Step-1,Increment      1: Step Time =    1.000,"P-39-1",           662,       160.532,       47.3983,            0.,NA,NA,"",   2.71015E+06,   2.58503E+06,   2.58503E+06
C:/temp/Job-39.odb,Step-1,Increment      1: Step Time =    1.000,"P-39-1",           663,       152.343,       38.7702,            0.,NA,NA,"",   3.29411E+06,   3.32271E+06,   3.32271E+06
C:/temp/Job-39.odb,Step-1,Increment      1: Step Time =    1.000,"P-39-1",           664,       135.496,       165.257,            0.,NA,NA,"",   5.87004E+06,   5.99279E+06,   5.99279E+06
C:/temp/Job-39.odb,Step-1,Increment      1: Step Time =    1.000,"P-39-1",           665,       167.143,       131.464,            0.,NA,NA,"",   1.49346E+06,  -660.992E+03,  -660.992E+03
C:/temp/Job-39.odb,Step-1,Increment      1: Step Time =    1.000,"P-39-1",           666,       140.468,       9.41735,            0.,NA,NA,"",   842.305E+03,   578.749E+03,   578.749E+03
C:/temp/Job-39.odb,Step-1,Increment      1: Step Time =    1.000,"P-39-1",           667,       130.534,       9.06420,            0.,NA,NA,"",   713.090E+03,   405.734E+03,   405.734E+03
C:/temp/Job-39.odb,Step-1,Increment      1: Step Time =    1.000,"P-39-1",           668,       100.738,       9.10893,            0.,NA,NA,"",   1.90651E+06,   1.77765E+06,   1.77765E+06
C:/temp/Job-39.odb,Step-1,Increment      1: Step Time =    1.000,"P-39-1",           669,       89.5667,       10.5835,            0.,NA,NA,"",   2.95875E+06,   2.75774E+06,   2.75774E+06
C:/temp/Job-39.odb,Step-1,Increment      1: Step Time =    1.000,"P-39-1",           670,       79.4185,       9.31734,            0.,NA,NA,"",   3.25912E+06,   3.05083E+06,   3.05083E+06
C:/temp/Job-39.odb,Step-1,Increment      1: Step Time =    1.000,"P-39-1",           671,       191.241,       139.878,            0.,NA,NA,"",   2.06021E+06,   2.16814E+06,   2.16814E+06
C:/temp/Job-39.odb,Step-1,Increment      1: Step Time =    1.000,"P-39-1",           672,       189.933,       120.385,            0.,NA,NA,"",   2.73158E+06,   2.86043E+06,   2.86043E+06
C:/temp/Job-39.odb,Step-1,Increment      1: Step Time =    1.000,"P-39-1",           673,       189.223,       109.864,            0.,NA,NA,"",   2.54387E+06,   2.73223E+06,   2.73223E+06
C:/temp/Job-39.odb,Step-1,Increment      1: Step Time =    1.000,"P-39-1",           674,       190.877,       89.5273,            0.,NA,NA,"",   2.97684E+06,   3.23442E+06,   3.23442E+06
C:/temp/Job-39.odb,Step-1,Increment      1: Step Time =    1.000,"P-39-1",           675,       190.507,       79.0881,            0.,NA,NA,"",   2.80874E+06,   2.96779E+06,   2.96779E+06
C:/temp/Job-39.odb,Step-1,Increment      1: Step Time =    1.000,"P-39-1",           676,       191.096,       70.0309,            0.,NA,NA,"",   2.55053E+06,   2.69849E+06,   2.69849E+06
C:/temp/Job-39.odb,Step-1,Increment      1: Step Time =    1.000,"P-39-1",           677,       190.100,       61.4546,            0.,NA,NA,"",   2.18240E+06,   2.23607E+06,   2.23607E+06
C:/temp/Job-39.odb,Step-1,Increment      1: Step Time =    1.000,"P-39-1",           678,       78.7651,       189.867,            0.,NA,NA,"",   3.36277E+06,   3.12902E+06,   3.12902E+06
C:/temp/Job-39.odb,Step-1,Increment      1: Step Time =    1.000,"P-39-1",           679,       121.987,       189.980,            0.,NA,NA,"",   852.407E+03,   912.866E+03,   912.866E+03
C:/temp/Job-39.odb,Step-1,Increment      1: Step Time =    1.000,"P-39-1",           680,       131.446,       191.443,            0.,NA,NA,"",   653.881E+03,   294.847E+03,   294.847E+03
C:/temp/Job-39.odb,Step-1,Increment      1: Step Time =    1.000,"P-39-1",           681,       10.2065,       69.2769,            0.,NA,NA,"",   612.282E+03,  -624.001E+03,  -624.001E+03
C:/temp/Job-39.odb,Step-1,Increment      1: Step Time =    1.000,"P-39-1",           682,       9.73647,       79.1492,            0.,NA,NA,"",   581.322E+03,  -631.457E+03,  -631.457E+03
C:/temp/Job-39.odb,Step-1,Increment      1: Step Time =    1.000,"P-39-1",           683,       10.6651,       88.9368,            0.,NA,NA,"",   462.761E+03,  -529.094E+03,  -529.094E+03
C:/temp/Job-39.odb,Step-1,Increment      1: Step Time =    1.000,"P-39-1",           684,       10.7875,       120.759,            0.,NA,NA,"",    596.81E+03,  -645.779E+03,  -645.779E+03
C:/temp/Job-39.odb,Step-1,Increment      1: Step Time =    1.000,"P-39-1",           685,       10.5035,       131.651,            0.,NA,NA,"",   615.338E+03,  -619.072E+03,  -619.072E+03
C:/temp/Job-39.odb,Step-1,Increment      1: Step Time =    1.000,"P-39-1",           686,       120.556,       9.53888,            0.,NA,NA,"",   820.847E+03,   862.117E+03,   862.117E+03
C:/temp/Job-39.odb,Step-1,Increment      1: Step Time =    1.000,"P-39-1",           687,       110.011,       9.07695,            0.,NA,NA,"",   1.24061E+06,   1.23353E+06,   1.23353E+06
C:/temp/Job-39.odb,Step-1,Increment      1: Step Time =    1.000,"P-39-1",           688,       70.0144,       8.60363,            0.,NA,NA,"",   3.56994E+06,   3.40582E+06,   3.40582E+06
C:/temp/Job-39.odb,Step-1,Increment      1: Step Time =    1.000,"P-39-1",           689,       190.671,       130.299,            0.,NA,NA,"",   2.53740E+06,   2.65777E+06,   2.65777E+06
C:/temp/Job-39.odb,Step-1,Increment      1: Step Time =    1.000,"P-39-1",           690,       190.236,       99.0345,            0.,NA,NA,"",   2.77596E+06,   3.03300E+06,   3.03300E+06
C:/temp/Job-39.odb,Step-1,Increment      1: Step Time =    1.000,"P-39-1",           691,       59.8295,       190.778,            0.,NA,NA,"",   3.86161E+06,   3.74702E+06,   3.74702E+06
C:/temp/Job-39.odb,Step-1,Increment      1: Step Time =    1.000,"P-39-1",           692,       69.4757,       190.739,            0.,NA,NA,"",   3.59745E+06,   3.42286E+06,   3.42286E+06
C:/temp/Job-39.odb,Step-1,Increment      1: Step Time =    1.000,"P-39-1",           693,       89.7282,       188.875,            0.,NA,NA,"",   3.04781E+06,   2.84592E+06,   2.84592E+06
C:/temp/Job-39.odb,Step-1,Increment      1: Step Time =    1.000,"P-39-1",           694,       111.308,       189.311,            0.,NA,NA,"",   1.53767E+06,   1.56918E+06,   1.56918E+06
C:/temp/Job-39.odb,Step-1,Increment      1: Step Time =    1.000,"P-39-1",           695,       9.28264,       59.6115,            0.,NA,NA,"",   448.668E+03,  -407.305E+03,  -407.305E+03
C:/temp/Job-39.odb,Step-1,Increment      1: Step Time =    1.000,"P-39-1",           696,       9.83277,       99.5714,            0.,NA,NA,"",   368.318E+03,  -409.038E+03,  -409.038E+03
C:/temp/Job-39.odb,Step-1,Increment      1: Step Time =    1.000,"P-39-1",           697,       10.0225,       109.062,            0.,NA,NA,"",   430.517E+03,  -494.244E+03,  -494.244E+03
C:/temp/Job-39.odb,Step-1,Increment      1: Step Time =    1.000,"P-39-1",           698,       27.7174,       67.9100,            0.,NA,NA,"",   1.18991E+06,  -1.21834E+06,  -1.21834E+06
C:/temp/Job-39.odb,Step-1,Increment      1: Step Time =    1.000,"P-39-1",           699,       22.7177,       111.764,            0.,NA,NA,"",   708.882E+03,  -755.710E+03,  -755.710E+03
C:/temp/Job-39.odb,Step-1,Increment      1: Step Time =    1.000,"P-39-1",           700,       26.8146,       126.697,            0.,NA,NA,"",   1.11408E+06,  -1.14403E+06,  -1.14403E+06
C:/temp/Job-39.odb,Step-1,Increment      1: Step Time =    1.000,"P-39-1",           701,       77.8371,       176.445,            0.,NA,NA,"",   3.69771E+06,   3.47483E+06,   3.47483E+06
C:/temp/Job-39.odb,Step-1,Increment      1: Step Time =    1.000,"P-39-1",           702,       72.7651,       174.343,            0.,NA,NA,"",   3.18928E+06,   2.90071E+06,   2.90071E+06
C:/temp/Job-39.odb,Step-1,Increment      1: Step Time =    1.000,"P-39-1",           703,       25.6907,       72.7891,            0.,NA,NA,"",   1.07091E+06,  -1.10155E+06,  -1.10155E+06
C:/temp/Job-39.odb,Step-1,Increment      1: Step Time =    1.000,"P-39-1",           704,       23.7081,       77.8910,            0.,NA,NA,"",   920.224E+03,  -957.527E+03,  -957.527E+03
C:/temp/Job-39.odb,Step-1,Increment      1: Step Time =    1.000,"P-39-1",           705,       24.9184,       121.907,            0.,NA,NA,"",   961.031E+03,  -996.431E+03,  -996.431E+03
C:/temp/Job-39.odb,Step-1,Increment      1: Step Time =    1.000,"P-39-1",           706,       67.7074,       172.488,            0.,NA,NA,"",   2.70884E+06,   2.33516E+06,   2.33516E+06
C:/temp/Job-39.odb,Step-1,Increment      1: Step Time =    1.000,"P-39-1",           707,       175.882,       77.6365,            0.,NA,NA,"",   2.15589E+06,  -1.63708E+06,  -1.63708E+06
C:/temp/Job-39.odb,Step-1,Increment      1: Step Time =    1.000,"P-39-1",           708,       110.622,       19.8230,            0.,NA,NA,"",   4.47739E+06,   4.66967E+06,   4.66967E+06
C:/temp/Job-39.odb,Step-1,Increment      1: Step Time =    1.000,"P-39-1",           709,       173.904,       72.4055,            0.,NA,NA,"",   2.12942E+06,  -816.122E+03,  -816.122E+03
C:/temp/Job-39.odb,Step-1,Increment      1: Step Time =    1.000,"P-39-1",           710,       71.2541,       27.1387,            0.,NA,NA,"",   2.91640E+06,   2.62191E+06,   2.62191E+06
C:/temp/Job-39.odb,Step-1,Increment      1: Step Time =    1.000,"P-39-1",           711,       178.778,       110.735,            0.,NA,NA,"",   1.84670E+06,  -1.19847E+06,  -1.19847E+06
C:/temp/Job-39.odb,Step-1,Increment      1: Step Time =    1.000,"P-39-1",           712,       123.780,       24.4852,            0.,NA,NA,"",   5.07278E+06,   5.30524E+06,   5.30524E+06
C:/temp/Job-39.odb,Step-1,Increment      1: Step Time =    1.000,"P-39-1",           713,       122.230,       176.060,            0.,NA,NA,"",   5.07746E+06,   5.30941E+06,   5.30941E+06
C:/temp/Job-39.odb,Step-1,Increment      1: Step Time =    1.000,"P-39-1",           714,       173.240,       129.146,            0.,NA,NA,"",   2.13368E+06,  -747.002E+03,  -747.002E+03
C:/temp/Job-39.odb,Step-1,Increment      1: Step Time =    1.000,"P-39-1",           715,       128.524,       27.0259,            0.,NA,NA,"",   5.25088E+06,   5.46435E+06,   5.46435E+06
C:/temp/Job-39.odb,Step-1,Increment      1: Step Time =    1.000,"P-39-1",           716,       127.430,       173.656,            0.,NA,NA,"",   5.20581E+06,   5.42824E+06,   5.42824E+06
C:/temp/Job-39.odb,Step-1,Increment      1: Step Time =    1.000,"P-39-1",           717,       132.933,       29.3874,            0.,NA,NA,"",   5.11329E+06,   5.29335E+06,   5.29335E+06
C:/temp/Job-39.odb,Step-1,Increment      1: Step Time =    1.000,"P-39-1",           718,       175.767,       123.883,            0.,NA,NA,"",   2.16775E+06,  -965.000E+03,  -965.000E+03
C:/temp/Job-39.odb,Step-1,Increment      1: Step Time =    1.000,"P-39-1",           719,       76.0840,       24.5777,            0.,NA,NA,"",   3.52619E+06,   3.28517E+06,   3.28517E+06
C:/temp/Job-39.odb,Step-1,Increment      1: Step Time =    1.000,"P-39-1",           720,       20.4893,       101.550,            0.,NA,NA,"",   567.676E+03,  -625.554E+03,  -625.554E+03
C:/temp/Job-39.odb,Step-1,Increment      1: Step Time =    1.000,"P-39-1",           721,       98.9275,       21.3261,            0.,NA,NA,"",   5.13221E+06,   5.22553E+06,   5.22553E+06
C:/temp/Job-39.odb,Step-1,Increment      1: Step Time =    1.000,"P-39-1",           722,       177.676,       100.010,            0.,NA,NA,"",   2.19160E+06,  -2.22321E+06,  -2.22321E+06
C:/temp/Job-39.odb,Step-1,Increment      1: Step Time =    1.000,"P-39-1",           723,       99.9318,       178.954,            0.,NA,NA,"",   5.10587E+06,   5.21334E+06,   5.21334E+06
C:/temp/Job-39.odb,Step-1,Increment      1: Step Time =    1.000,"P-39-1",           724,       35.8399,       52.0639,            0.,NA,NA,"",   1.19717E+06,  -1.22035E+06,  -1.22035E+06
C:/temp/Job-39.odb,Step-1,Increment      1: Step Time =    1.000,"P-39-1",           725,       52.6609,       36.2342,            0.,NA,NA,"",   1.45915E+06,      -934.859,      -934.859
C:/temp/Job-39.odb,Step-1,Increment      1: Step Time =    1.000,"P-39-1",           726,       147.944,       164.320,            0.,NA,NA,"",   3.63482E+06,   3.71993E+06,   3.71993E+06
C:/temp/Job-39.odb,Step-1,Increment      1: Step Time =    1.000,"P-39-1",           727,       162.212,       147.517,            0.,NA,NA,"",   2.38748E+06,   2.19636E+06,   2.19636E+06
C:/temp/Job-39.odb,Step-1,Increment      1: Step Time =    1.000,"P-39-1",           728,       51.4943,       164.104,            0.,NA,NA,"",   1.49179E+06,  -388.454E+03,  -388.454E+03
C:/temp/Job-39.odb,Step-1,Increment      1: Step Time =    1.000,"P-39-1",           729,       34.2622,       146.860,            0.,NA,NA,"",   1.15079E+06,  -1.17231E+06,  -1.17231E+06
C:/temp/Job-39.odb,Step-1,Increment      1: Step Time =    1.000,"P-39-1",           730,       165.426,       51.4156,            0.,NA,NA,"",   2.50363E+06,   2.22532E+06,   2.22532E+06
C:/temp/Job-39.odb,Step-1,Increment      1: Step Time =    1.000,"P-39-1",           731,       146.688,       36.1645,            0.,NA,NA,"",   3.84446E+06,   3.94078E+06,   3.94078E+06
C:/temp/Job-39.odb,Step-1,Increment      1: Step Time =    1.000,"P-39-1",           732,       165.187,       143.258,            0.,NA,NA,"",   2.15040E+06,   1.81860E+06,   1.81860E+06
C:/temp/Job-39.odb,Step-1,Increment      1: Step Time =    1.000,"P-39-1",           733,       142.225,       166.721,            0.,NA,NA,"",   4.21745E+06,   4.35448E+06,   4.35448E+06
C:/temp/Job-39.odb,Step-1,Increment      1: Step Time =    1.000,"P-39-1",           734,       20.7656,       89.0343,            0.,NA,NA,"",   647.419E+03,  -704.003E+03,  -704.003E+03
C:/temp/Job-39.odb,Step-1,Increment      1: Step Time =    1.000,"P-39-1",           735,       88.3274,       21.0983,            0.,NA,NA,"",   4.46563E+06,   4.39432E+06,   4.39432E+06
C:/temp/Job-39.odb,Step-1,Increment      1: Step Time =    1.000,"P-39-1",           736,       89.5536,       178.847,            0.,NA,NA,"",   4.53594E+06,   4.48300E+06,   4.48300E+06
C:/temp/Job-39.odb,Step-1,Increment      1: Step Time =    1.000,"P-39-1",           737,       110.136,       178.842,            0.,NA,NA,"",   5.02146E+06,   5.22280E+06,   5.22280E+06
C:/temp/Job-39.odb,Step-1,Increment      1: Step Time =    1.000,"P-39-1",           738,       177.981,       89.7385,            0.,NA,NA,"",   2.05179E+06,  -1.92332E+06,  -1.92332E+06
C:/temp/Job-39.odb,Step-1,Increment      1: Step Time =    1.000,"P-39-1",           739,       187.005,       140.037,            0.,NA,NA,"",   2.30192E+06,   2.20639E+06,   2.20639E+06
C:/temp/Job-39.odb,Step-1,Increment      1: Step Time =    1.000,"P-39-1",           740,       12.9970,       59.4864,            0.,NA,NA,"",   518.465E+03,  -466.818E+03,  -466.818E+03
C:/temp/Job-39.odb,Step-1,Increment      1: Step Time =    1.000,"P-39-1",           741,       140.900,       187.165,            0.,NA,NA,"",   1.30441E+06,   1.28376E+06,   1.28376E+06
C:/temp/Job-39.odb,Step-1,Increment      1: Step Time =    1.000,"P-39-1",           742,       186.159,       62.6634,            0.,NA,NA,"",   2.43161E+06,   2.26593E+06,   2.26593E+06
C:/temp/Job-39.odb,Step-1,Increment      1: Step Time =    1.000,"P-39-1",           743,       13.0718,       142.650,            0.,NA,NA,"",   438.391E+03,  -365.417E+03,  -365.417E+03
C:/temp/Job-39.odb,Step-1,Increment      1: Step Time =    1.000,"P-39-1",           744,       60.0385,       13.8377,            0.,NA,NA,"",   3.63043E+06,   3.40789E+06,   3.40789E+06
C:/temp/Job-39.odb,Step-1,Increment      1: Step Time =    1.000,"P-39-1",           745,       59.5667,       185.732,            0.,NA,NA,"",   3.61292E+06,   3.38982E+06,   3.38982E+06
C:/temp/Job-39.odb,Step-1,Increment      1: Step Time =    1.000,"P-39-1",           746,       140.692,       14.3310,            0.,NA,NA,"",   1.55599E+06,   1.55787E+06,   1.55787E+06
C:/temp/Job-39.odb,Step-1,Increment      1: Step Time =    1.000,"P-39-1",           747,       132.439,       171.443,            0.,NA,NA,"",   5.02582E+06,   5.22020E+06,   5.22020E+06
C:/temp/Job-39.odb,Step-1,Increment      1: Step Time =    1.000,"P-39-1",           748,       130.516,       13.3660,            0.,NA,NA,"",   1.50348E+06,   1.58618E+06,   1.58618E+06
C:/temp/Job-39.odb,Step-1,Increment      1: Step Time =    1.000,"P-39-1",           749,       69.1447,       186.328,            0.,NA,NA,"",   3.68374E+06,   3.40062E+06,   3.40062E+06
C:/temp/Job-39.odb,Step-1,Increment      1: Step Time =    1.000,"P-39-1",           750,       70.4503,       12.2938,            0.,NA,NA,"",   3.64405E+06,   3.38681E+06,   3.38681E+06
C:/temp/Job-39.odb,Step-1,Increment      1: Step Time =    1.000,"P-39-1",           751,       132.236,       187.417,            0.,NA,NA,"",   1.30028E+06,   1.36172E+06,   1.36172E+06
C:/temp/Job-39.odb,Step-1,Increment      1: Step Time =    1.000,"P-39-1",           752,       15.5749,       132.648,            0.,NA,NA,"",   715.812E+03,  -714.916E+03,  -714.916E+03
C:/temp/Job-39.odb,Step-1,Increment      1: Step Time =    1.000,"P-39-1",           753,       186.799,       70.0181,            0.,NA,NA,"",   2.48847E+06,   2.39124E+06,   2.39124E+06
C:/temp/Job-39.odb,Step-1,Increment      1: Step Time =    1.000,"P-39-1",           754,       16.1530,       68.9523,            0.,NA,NA,"",   737.224E+03,  -744.033E+03,  -744.033E+03
C:/temp/Job-39.odb,Step-1,Increment      1: Step Time =    1.000,"P-39-1",           755,       186.266,       130.659,            0.,NA,NA,"",   2.47720E+06,   2.32679E+06,   2.32679E+06
C:/temp/Job-39.odb,Step-1,Increment      1: Step Time =    1.000,"P-39-1",           756,       59.8746,       27.9010,            0.,NA,NA,"",   2.49914E+06,   2.01361E+06,   2.01361E+06
C:/temp/Job-39.odb,Step-1,Increment      1: Step Time =    1.000,"P-39-1",           757,       139.192,       27.8132,            0.,NA,NA,"",   3.87099E+06,   4.02574E+06,   4.02574E+06
C:/temp/Job-39.odb,Step-1,Increment      1: Step Time =    1.000,"P-39-1",           758,       172.950,       61.2610,            0.,NA,NA,"",   2.46909E+06,   1.83287E+06,   1.83287E+06
C:/temp/Job-39.odb,Step-1,Increment      1: Step Time =    1.000,"P-39-1",           759,       15.9250,       88.2435,            0.,NA,NA,"",   539.870E+03,  -607.263E+03,  -607.263E+03
C:/temp/Job-39.odb,Step-1,Increment      1: Step Time =    1.000,"P-39-1",           760,       43.0196,       43.6443,            0.,NA,NA,"",   1.17560E+06,  -1.07222E+06,  -1.07222E+06
C:/temp/Job-39.odb,Step-1,Increment      1: Step Time =    1.000,"P-39-1",           761,       155.627,       155.595,            0.,NA,NA,"",   3.03109E+06,   3.01349E+06,   3.01349E+06
C:/temp/Job-39.odb,Step-1,Increment      1: Step Time =    1.000,"P-39-1",           762,       42.3252,       157.012,            0.,NA,NA,"",   1.12093E+06,  -985.410E+03,  -985.410E+03
C:/temp/Job-39.odb,Step-1,Increment      1: Step Time =    1.000,"P-39-1",           763,       121.532,       13.9496,            0.,NA,NA,"",   2.01523E+06,   2.16786E+06,   2.16786E+06
C:/temp/Job-39.odb,Step-1,Increment      1: Step Time =    1.000,"P-39-1",           764,       77.5228,       186.081,            0.,NA,NA,"",   3.68241E+06,   3.38547E+06,   3.38547E+06
C:/temp/Job-39.odb,Step-1,Increment      1: Step Time =    1.000,"P-39-1",           765,       124.084,       185.497,            0.,NA,NA,"",   1.97784E+06,   2.11638E+06,   2.11638E+06
C:/temp/Job-39.odb,Step-1,Increment      1: Step Time =    1.000,"P-39-1",           766,       78.4295,       13.8217,            0.,NA,NA,"",   3.68256E+06,   3.40492E+06,   3.40492E+06
C:/temp/Job-39.odb,Step-1,Increment      1: Step Time =    1.000,"P-39-1",           767,       14.9064,       121.615,            0.,NA,NA,"",   664.242E+03,  -711.536E+03,  -711.536E+03
C:/temp/Job-39.odb,Step-1,Increment      1: Step Time =    1.000,"P-39-1",           768,       185.819,       77.8366,            0.,NA,NA,"",   2.32622E+06,   2.17989E+06,   2.17989E+06
C:/temp/Job-39.odb,Step-1,Increment      1: Step Time =    1.000,"P-39-1",           769,       16.3805,       82.1385,            0.,NA,NA,"",   640.097E+03,  -697.200E+03,  -697.200E+03
C:/temp/Job-39.odb,Step-1,Increment      1: Step Time =    1.000,"P-39-1",           770,       185.270,       120.952,            0.,NA,NA,"",   2.20434E+06,   1.99671E+06,   1.99671E+06
C:/temp/Job-39.odb,Step-1,Increment      1: Step Time =    1.000,"P-39-1",           771,       112.885,       14.8547,            0.,NA,NA,"",   2.66479E+06,   2.79198E+06,   2.79198E+06
C:/temp/Job-39.odb,Step-1,Increment      1: Step Time =    1.000,"P-39-1",           772,       18.7496,       112.319,            0.,NA,NA,"",   614.922E+03,  -676.789E+03,  -676.789E+03
C:/temp/Job-39.odb,Step-1,Increment      1: Step Time =    1.000,"P-39-1",           773,       170.610,       134.092,            0.,NA,NA,"",   2.03465E+06,   693.121E+03,   693.121E+03
C:/temp/Job-39.odb,Step-1,Increment      1: Step Time =    1.000,"P-39-1",           774,       98.4648,       17.1823,            0.,NA,NA,"",   3.99624E+06,   4.01025E+06,   4.01025E+06
C:/temp/Job-39.odb,Step-1,Increment      1: Step Time =    1.000,"P-39-1",           775,       104.878,       183.422,            0.,NA,NA,"",   3.70025E+06,   3.78838E+06,   3.78838E+06
C:/temp/Job-39.odb,Step-1,Increment      1: Step Time =    1.000,"P-39-1",           776,       93.9411,       16.5029,            0.,NA,NA,"",   3.92687E+06,   3.85243E+06,   3.85243E+06
C:/temp/Job-39.odb,Step-1,Increment      1: Step Time =    1.000,"P-39-1",           777,       108.915,       183.748,            0.,NA,NA,"",   3.41449E+06,   3.54027E+06,   3.54027E+06
C:/temp/Job-39.odb,Step-1,Increment      1: Step Time =    1.000,"P-39-1",           778,       90.0244,       183.839,            0.,NA,NA,"",   3.87221E+06,   3.72136E+06,   3.72136E+06
C:/temp/Job-39.odb,Step-1,Increment      1: Step Time =    1.000,"P-39-1",           779,       15.2515,       103.946,            0.,NA,NA,"",   466.191E+03,  -530.175E+03,  -530.175E+03
C:/temp/Job-39.odb,Step-1,Increment      1: Step Time =    1.000,"P-39-1",           780,       180.928,       99.7314,            0.,NA,NA,"",   919.604E+03,  -820.274E+03,  -820.274E+03
C:/temp/Job-39.odb,Step-1,Increment      1: Step Time =    1.000,"P-39-1",           781,       109.073,       12.8545,            0.,NA,NA,"",   2.42827E+06,   2.51631E+06,   2.51631E+06
C:/temp/Job-39.odb,Step-1,Increment      1: Step Time =    1.000,"P-39-1",           782,       181.895,       95.8526,            0.,NA,NA,"",   994.775E+03,  -414.434E+03,  -414.434E+03
C:/temp/Job-39.odb,Step-1,Increment      1: Step Time =    1.000,"P-39-1",           783,       184.343,       115.932,            0.,NA,NA,"",   1.87502E+06,   1.62041E+06,   1.62041E+06
C:/temp/Job-39.odb,Step-1,Increment      1: Step Time =    1.000,"P-39-1",           784,       13.4662,       108.152,            0.,NA,NA,"",   462.897E+03,  -531.005E+03,  -531.005E+03
C:/temp/Job-39.odb,Step-1,Increment      1: Step Time =    1.000,"P-39-1",           785,       183.057,       90.8629,            0.,NA,NA,"",   1.34249E+06,   318.389E+03,   318.389E+03
C:/temp/Job-39.odb,Step-1,Increment      1: Step Time =    1.000,"P-39-1",           786,       183.798,       103.434,            0.,NA,NA,"",   1.08013E+06,   352.756E+03,   352.756E+03
C:/temp/Job-39.odb,Step-1,Increment      1: Step Time =    1.000,"P-39-1",           787,       14.0045,       98.7211,            0.,NA,NA,"",   425.069E+03,  -484.740E+03,  -484.740E+03
C:/temp/Job-39.odb,Step-1,Increment      1: Step Time =    1.000,"P-39-1",           788,       15.4589,       92.8427,            0.,NA,NA,"",   480.887E+03,  -550.137E+03,  -550.137E+03
C:/temp/Job-39.odb,Step-1,Increment      1: Step Time =    1.000,"P-39-1",           789,       183.961,       110.098,            0.,NA,NA,"",   1.47706E+06,   936.337E+03,   936.337E+03
C:/temp/Job-39.odb,Step-1,Increment      1: Step Time =    1.000,"P-39-1",           790,       143.659,       170.946,            0.,NA,NA,"",   3.49664E+06,   3.61037E+06,   3.61037E+06
C:/temp/Job-39.odb,Step-1,Increment      1: Step Time =    1.000,"P-39-1",           791,       177.025,       132.088,            0.,NA,NA,"",   2.44070E+06,   1.00673E+06,   1.00673E+06
C:/temp/Job-39.odb,Step-1,Increment      1: Step Time =    1.000,"P-39-1",           792,       103.044,       16.8451,            0.,NA,NA,"",   3.82654E+06,   3.90847E+06,   3.90847E+06
C:/temp/Job-39.odb,Step-1,Increment      1: Step Time =    1.000,"P-39-1",           793,       85.9339,       183.758,            0.,NA,NA,"",   3.89452E+06,   3.68435E+06,   3.68435E+06
C:/temp/Job-39.odb,Step-1,Increment      1: Step Time =    1.000,"P-39-1",           794,       113.067,       185.119,            0.,NA,NA,"",   2.76384E+06,   2.90257E+06,   2.90257E+06
C:/temp/Job-39.odb,Step-1,Increment      1: Step Time =    1.000,"P-39-1",           795,       88.7579,       15.9582,            0.,NA,NA,"",   3.84103E+06,    3.6724E+06,    3.6724E+06
C:/temp/Job-39.odb,Step-1,Increment      1: Step Time =    1.000,"P-39-1",           796,       168.110,       45.3356,            0.,NA,NA,"",   2.59668E+06,   2.34309E+06,   2.34309E+06
C:/temp/Job-39.odb,Step-1,Increment      1: Step Time =    1.000,"P-39-1",           797,       152.785,       33.0105,            0.,NA,NA,"",   3.02161E+06,   3.03433E+06,   3.03433E+06
C:/temp/Job-39.odb,Step-1,Increment      1: Step Time =    1.000,"P-39-1",           798,       165.596,       150.658,            0.,NA,NA,"",   2.60512E+06,   2.33197E+06,   2.33197E+06
C:/temp/Job-39.odb,Step-1,Increment      1: Step Time =    1.000,"P-39-1",           799,       32.3566,       48.3040,            0.,NA,NA,"",   737.683E+03,  -693.204E+03,  -693.204E+03
C:/temp/Job-39.odb,Step-1,Increment      1: Step Time =    1.000,"P-39-1",           800,       29.3118,       153.330,            0.,NA,NA,"",   565.319E+03,  -308.787E+03,  -308.787E+03
C:/temp/Job-39.odb,Step-1,Increment      1: Step Time =    1.000,"P-39-1",           801,       46.5701,       33.1225,            0.,NA,NA,"",   1.70164E+06,   1.23978E+06,   1.23978E+06
C:/temp/Job-39.odb,Step-1,Increment      1: Step Time =    1.000,"P-39-1",           802,       47.6465,       167.333,            0.,NA,NA,"",   1.75145E+06,   865.486E+03,   865.486E+03
C:/temp/Job-39.odb,Step-1,Increment      1: Step Time =    1.000,"P-39-1",           803,       152.997,       166.487,            0.,NA,NA,"",   3.02283E+06,   3.03851E+06,   3.03851E+06
C:/temp/Job-39.odb,Step-1,Increment      1: Step Time =    1.000,"P-39-1",           804,       23.3305,       66.5982,            0.,NA,NA,"",   965.260E+03,  -978.943E+03,  -978.943E+03
C:/temp/Job-39.odb,Step-1,Increment      1: Step Time =    1.000,"P-39-1",           805,       24.5863,       132.570,            0.,NA,NA,"",   1.03089E+06,  -1.04786E+06,  -1.04786E+06
C:/temp/Job-39.odb,Step-1,Increment      1: Step Time =    1.000,"P-39-1",           806,       178.474,       70.3305,            0.,NA,NA,"",   2.42002E+06,   1.15055E+06,   1.15055E+06
C:/temp/Job-39.odb,Step-1,Increment      1: Step Time =    1.000,"P-39-1",           807,       131.175,       23.3570,            0.,NA,NA,"",   3.89481E+06,   4.08906E+06,   4.08906E+06
C:/temp/Job-39.odb,Step-1,Increment      1: Step Time =    1.000,"P-39-1",           808,       68.6835,       23.6157,            0.,NA,NA,"",   3.29774E+06,   2.91073E+06,   2.91073E+06
C:/temp/Job-39.odb,Step-1,Increment      1: Step Time =    1.000,"P-39-1",           809,       134.078,       175.395,            0.,NA,NA,"",   3.84156E+06,   4.02411E+06,   4.02411E+06
C:/temp/Job-39.odb,Step-1,Increment      1: Step Time =    1.000,"P-39-1",           810,       66.3701,       177.026,            0.,NA,NA,"",   3.25111E+06,   2.83852E+06,   2.83852E+06
C:/temp/Job-39.odb,Step-1,Increment      1: Step Time =    1.000,"P-39-1",           811,       181.125,       80.4777,            0.,NA,NA,"",   1.92272E+06,   538.973E+03,   538.973E+03
C:/temp/Job-39.odb,Step-1,Increment      1: Step Time =    1.000,"P-39-1",           812,       20.7280,       123.510,            0.,NA,NA,"",   837.931E+03,  -876.262E+03,  -876.262E+03
C:/temp/Job-39.odb,Step-1,Increment      1: Step Time =    1.000,"P-39-1",           813,       76.4153,       17.8207,            0.,NA,NA,"",   3.80763E+06,   3.49162E+06,   3.49162E+06
C:/temp/Job-39.odb,Step-1,Increment      1: Step Time =    1.000,"P-39-1",           814,       124.313,       179.531,            0.,NA,NA,"",   3.67616E+06,   3.88895E+06,   3.88895E+06
C:/temp/Job-39.odb,Step-1,Increment      1: Step Time =    1.000,"P-39-1",           815,       187.072,       89.9528,            0.,NA,NA,"",   1.90405E+06,   1.99206E+06,   1.99206E+06
C:/temp/Job-39.odb,Step-1,Increment      1: Step Time =    1.000,"P-39-1",           816,       135.419,       14.1035,            0.,NA,NA,"",   1.55462E+06,   1.60140E+06,   1.60140E+06
C:/temp/Job-39.odb,Step-1,Increment      1: Step Time =    1.000,"P-39-1",           817,       64.6623,       186.120,            0.,NA,NA,"",   3.66759E+06,   3.41195E+06,   3.41195E+06
C:/temp/Job-39.odb,Step-1,Increment      1: Step Time =    1.000,"P-39-1",           818,       65.7570,       13.9468,            0.,NA,NA,"",   3.64430E+06,   3.37663E+06,   3.37663E+06
C:/temp/Job-39.odb,Step-1,Increment      1: Step Time =    1.000,"P-39-1",           819,       15.6621,         138.5,            0.,NA,NA,"",   624.227E+03,  -588.361E+03,  -588.361E+03
C:/temp/Job-39.odb,Step-1,Increment      1: Step Time =    1.000,"P-39-1",           820,       186.545,       66.3227,            0.,NA,NA,"",   2.47644E+06,   2.33390E+06,   2.33390E+06
C:/temp/Job-39.odb,Step-1,Increment      1: Step Time =    1.000,"P-39-1",           821,       136.490,       187.426,            0.,NA,NA,"",   1.24815E+06,   1.25981E+06,   1.25981E+06
C:/temp/Job-39.odb,Step-1,Increment      1: Step Time =    1.000,"P-39-1",           822,       15.0673,       63.3890,            0.,NA,NA,"",   638.002E+03,  -613.859E+03,  -613.859E+03
C:/temp/Job-39.odb,Step-1,Increment      1: Step Time =    1.000,"P-39-1",           823,       186.392,       135.400,            0.,NA,NA,"",   2.44011E+06,   2.31368E+06,   2.31368E+06
C:/temp/Job-39.odb,Step-1,Increment      1: Step Time =    1.000,"P-39-1",           824,       101.961,       12.8987,            0.,NA,NA,"",   2.80478E+06,   2.78034E+06,   2.78034E+06
C:/temp/Job-39.odb,Step-1,Increment      1: Step Time =    1.000,"P-39-1",           825,       100.311,       188.815,            0.,NA,NA,"",   2.45649E+06,   2.37437E+06,   2.37437E+06
C:/temp/Job-39.odb,Step-1,Increment      1: Step Time =    1.000,"P-39-1",           826,       185.850,       97.8488,            0.,NA,NA,"",   1.21803E+06,   1.33320E+06,   1.33320E+06
C:/temp/Job-39.odb,Step-1,Increment      1: Step Time =    1.000,"P-39-1",           827,       125.951,       13.0050,            0.,NA,NA,"",   1.58721E+06,   1.70279E+06,   1.70279E+06
C:/temp/Job-39.odb,Step-1,Increment      1: Step Time =    1.000,"P-39-1",           828,       73.3810,       185.212,            0.,NA,NA,"",   3.71108E+06,   3.39979E+06,   3.39979E+06
C:/temp/Job-39.odb,Step-1,Increment      1: Step Time =    1.000,"P-39-1",           829,       74.1971,       12.3523,            0.,NA,NA,"",   3.63139E+06,   3.36311E+06,   3.36311E+06
C:/temp/Job-39.odb,Step-1,Increment      1: Step Time =    1.000,"P-39-1",           830,       126.113,       182.129,            0.,NA,NA,"",   2.78092E+06,   2.95789E+06,   2.95789E+06
C:/temp/Job-39.odb,Step-1,Increment      1: Step Time =    1.000,"P-39-1",           831,       16.3017,       126.649,            0.,NA,NA,"",   741.134E+03,  -769.604E+03,  -769.604E+03
C:/temp/Job-39.odb,Step-1,Increment      1: Step Time =    1.000,"P-39-1",           832,       186.728,       74.0327,            0.,NA,NA,"",   2.45784E+06,   2.36323E+06,   2.36323E+06
C:/temp/Job-39.odb,Step-1,Increment      1: Step Time =    1.000,"P-39-1",           833,       139.083,       173.266,            0.,NA,NA,"",   3.69629E+06,   3.84746E+06,   3.84746E+06
C:/temp/Job-39.odb,Step-1,Increment      1: Step Time =    1.000,"P-39-1",           834,       61.3673,       175.777,            0.,NA,NA,"",   2.96404E+06,   2.53193E+06,   2.53193E+06
C:/temp/Job-39.odb,Step-1,Increment      1: Step Time =    1.000,"P-39-1",           835,       27.4234,       142.405,            0.,NA,NA,"",   936.043E+03,  -940.226E+03,  -940.226E+03
C:/temp/Job-39.odb,Step-1,Increment      1: Step Time =    1.000,"P-39-1",           836,       55.5446,       30.0332,            0.,NA,NA,"",   2.14749E+06,   1.62497E+06,   1.62497E+06
C:/temp/Job-39.odb,Step-1,Increment      1: Step Time =    1.000,"P-39-1",           837,       134.928,       25.9089,            0.,NA,NA,"",   3.97889E+06,   4.15219E+06,   4.15219E+06
C:/temp/Job-39.odb,Step-1,Increment      1: Step Time =    1.000,"P-39-1",           838,       171.433,       56.7051,            0.,NA,NA,"",   2.54156E+06,   2.03685E+06,   2.03685E+06
C:/temp/Job-39.odb,Step-1,Increment      1: Step Time =    1.000,"P-39-1",           839,       14.8765,       74.5644,            0.,NA,NA,"",   690.740E+03,  -725.353E+03,  -725.353E+03
C:/temp/Job-39.odb,Step-1,Increment      1: Step Time =    1.000,"P-39-1",           840,       185.600,       125.978,            0.,NA,NA,"",   2.41312E+06,   2.24660E+06,   2.24660E+06
C:/temp/Job-39.odb,Step-1,Increment      1: Step Time =    1.000,"P-39-1",           841,       64.2918,       25.8110,            0.,NA,NA,"",   2.88512E+06,   2.44890E+06,   2.44890E+06
C:/temp/Job-39.odb,Step-1,Increment      1: Step Time =    1.000,"P-39-1",           842,       25.9406,       137.362,            0.,NA,NA,"",   1.02895E+06,  -1.04040E+06,  -1.04040E+06
C:/temp/Job-39.odb,Step-1,Increment      1: Step Time =    1.000,"P-39-1",           843,       175.279,       65.6691,            0.,NA,NA,"",   2.42800E+06,   1.68920E+06,   1.68920E+06
C:/temp/Job-39.odb,Step-1,Increment      1: Step Time =    1.000,"P-39-1",           844,       25.0675,       61.9048,            0.,NA,NA,"",   949.816E+03,  -953.717E+03,  -953.717E+03
C:/temp/Job-39.odb,Step-1,Increment      1: Step Time =    1.000,"P-39-1",           845,       106.987,       15.5844,            0.,NA,NA,"",   3.33401E+06,   3.44000E+06,   3.44000E+06
C:/temp/Job-39.odb,Step-1,Increment      1: Step Time =    1.000,"P-39-1",           846,       117.081,       15.3034,            0.,NA,NA,"",   2.55232E+06,   2.69452E+06,   2.69452E+06
C:/temp/Job-39.odb,Step-1,Increment      1: Step Time =    1.000,"P-39-1",           847,       17.9911,       117.914,            0.,NA,NA,"",   683.278E+03,  -737.197E+03,  -737.197E+03
C:/temp/Job-39.odb,Step-1,Increment      1: Step Time =    1.000,"P-39-1",           848,       83.3137,       15.3027,            0.,NA,NA,"",   3.77007E+06,   3.52031E+06,   3.52031E+06
C:/temp/Job-39.odb,Step-1,Increment      1: Step Time =    1.000,"P-39-1",           849,       120.122,       183.117,            0.,NA,NA,"",   2.88462E+06,   3.06719E+06,   3.06719E+06
C:/temp/Job-39.odb,Step-1,Increment      1: Step Time =    1.000,"P-39-1",           850,       80.0837,       183.352,            0.,NA,NA,"",   3.83082E+06,   3.54856E+06,   3.54856E+06
C:/temp/Job-39.odb,Step-1,Increment      1: Step Time =    1.000,"P-39-1",           851,       46.9108,       172.807,            0.,NA,NA,"",   2.30503E+06,   1.95650E+06,   1.95650E+06
C:/temp/Job-39.odb,Step-1,Increment      1: Step Time =    1.000,"P-39-1",           852,       23.4168,       153.312,            0.,NA,NA,"",   396.558E+03,   39.7526E+03,   39.7526E+03
C:/temp/Job-39.odb,Step-1,Increment      1: Step Time =    1.000,"P-39-1",           853,       149.405,       27.0248,            0.,NA,NA,"",   2.82777E+06,   2.85693E+06,   2.85693E+06
C:/temp/Job-39.odb,Step-1,Increment      1: Step Time =    1.000,"P-39-1",           854,       173.051,       46.8136,            0.,NA,NA,"",   2.50633E+06,   2.20043E+06,   2.20043E+06
C:/temp/Job-39.odb,Step-1,Increment      1: Step Time =    1.000,"P-39-1",           855,       151.248,       170.283,            0.,NA,NA,"",   2.95756E+06,   2.99260E+06,   2.99260E+06
C:/temp/Job-39.odb,Step-1,Increment      1: Step Time =    1.000,"P-39-1",           856,       49.5972,       27.9729,            0.,NA,NA,"",   2.27285E+06,   1.86662E+06,   1.86662E+06
C:/temp/Job-39.odb,Step-1,Increment      1: Step Time =    1.000,"P-39-1",           857,       172.784,       149.727,            0.,NA,NA,"",   2.58122E+06,   2.20485E+06,   2.20485E+06
C:/temp/Job-39.odb,Step-1,Increment      1: Step Time =    1.000,"P-39-1",           858,       129.656,       17.3907,            0.,NA,NA,"",   2.47272E+06,   2.61703E+06,   2.61703E+06
C:/temp/Job-39.odb,Step-1,Increment      1: Step Time =    1.000,"P-39-1",           859,       69.4458,       17.6848,            0.,NA,NA,"",   3.65565E+06,   3.30509E+06,   3.30509E+06
C:/temp/Job-39.odb,Step-1,Increment      1: Step Time =    1.000,"P-39-1",           860,       65.2086,       181.710,            0.,NA,NA,"",   3.54740E+06,   3.18582E+06,   3.18582E+06
C:/temp/Job-39.odb,Step-1,Increment      1: Step Time =    1.000,"P-39-1",           861,       130.374,       181.773,            0.,NA,NA,"",   2.62002E+06,   2.77321E+06,   2.77321E+06
C:/temp/Job-39.odb,Step-1,Increment      1: Step Time =    1.000,"P-39-1",           862,       20.1701,       133.140,            0.,NA,NA,"",   852.635E+03,  -857.542E+03,  -857.542E+03
C:/temp/Job-39.odb,Step-1,Increment      1: Step Time =    1.000,"P-39-1",           863,       182.661,       70.1723,            0.,NA,NA,"",   2.51178E+06,   2.08918E+06,   2.08918E+06
C:/temp/Job-39.odb,Step-1,Increment      1: Step Time =    1.000,"P-39-1",           864,       182.663,       131.045,            0.,NA,NA,"",   2.50468E+06,   2.10424E+06,   2.10424E+06
C:/temp/Job-39.odb,Step-1,Increment      1: Step Time =    1.000,"P-39-1",           865,       19.2028,       65.0028,            0.,NA,NA,"",   791.432E+03,  -786.269E+03,  -786.269E+03
C:/temp/Job-39.odb,Step-1,Increment      1: Step Time =    1.000,"P-39-1",           866,       181.472,       121.711,            0.,NA,NA,"",   2.06423E+06,   1.49502E+06,   1.49502E+06
C:/temp/Job-39.odb,Step-1,Increment      1: Step Time =    1.000,"P-39-1",           867,       19.2000,       76.3341,            0.,NA,NA,"",   788.342E+03,  -827.080E+03,  -827.080E+03
C:/temp/Job-39.odb,Step-1,Increment      1: Step Time =    1.000,"P-39-1",           868,       174.052,       136.922,            0.,NA,NA,"",   2.45205E+06,   1.76131E+06,   1.76131E+06
C:/temp/Job-39.odb,Step-1,Increment      1: Step Time =    1.000,"P-39-1",           869,       18.1596,       108.189,            0.,NA,NA,"",   559.837E+03,  -625.682E+03,  -625.682E+03
C:/temp/Job-39.odb,Step-1,Increment      1: Step Time =    1.000,"P-39-1",           870,       184.864,       81.8656,            0.,NA,NA,"",   2.05620E+06,   1.80674E+06,   1.80674E+06
C:/temp/Job-39.odb,Step-1,Increment      1: Step Time =    1.000,"P-39-1",           871,       162.378,       154.750,            0.,NA,NA,"",   2.73083E+06,   2.56459E+06,   2.56459E+06
C:/temp/Job-39.odb,Step-1,Increment      1: Step Time =    1.000,"P-39-1",           872,       44.1445,       163.978,            0.,NA,NA,"",   1.38401E+06,   159.613E+03,   159.613E+03
C:/temp/Job-39.odb,Step-1,Increment      1: Step Time =    1.000,"P-39-1",           873,       35.9287,       45.0941,            0.,NA,NA,"",   809.477E+03,  -698.823E+03,  -698.823E+03
C:/temp/Job-39.odb,Step-1,Increment      1: Step Time =    1.000,"P-39-1",           874,       25.6126,       57.3027,            0.,NA,NA,"",   817.544E+03,  -803.193E+03,  -803.193E+03
C:/temp/Job-39.odb,Step-1,Increment      1: Step Time =    1.000,"P-39-1",           875,       145.448,       174.666,            0.,NA,NA,"",   2.92899E+06,   2.99401E+06,   2.99401E+06
C:/temp/Job-39.odb,Step-1,Increment      1: Step Time =    1.000,"P-39-1",           876,       143.583,       29.6392,            0.,NA,NA,"",   3.61675E+06,   3.73638E+06,   3.73638E+06
C:/temp/Job-39.odb,Step-1,Increment      1: Step Time =    1.000,"P-39-1",           877,       56.4185,       175.088,            0.,NA,NA,"",   2.77690E+06,   2.36493E+06,   2.36493E+06
C:/temp/Job-39.odb,Step-1,Increment      1: Step Time =    1.000,"P-39-1",           878,       171.291,       141.725,            0.,NA,NA,"",   2.46295E+06,   1.91521E+06,   1.91521E+06
C:/temp/Job-39.odb,Step-1,Increment      1: Step Time =    1.000,"P-39-1",           879,       75.7108,       180.700,            0.,NA,NA,"",   3.80114E+06,   3.48150E+06,   3.48150E+06
C:/temp/Job-39.odb,Step-1,Increment      1: Step Time =    1.000,"P-39-1",           880,       123.218,       18.0045,            0.,NA,NA,"",   3.03530E+06,   3.22840E+06,   3.22840E+06
C:/temp/Job-39.odb,Step-1,Increment      1: Step Time =    1.000,"P-39-1",           881,       56.4775,       179.771,            0.,NA,NA,"",   3.21701E+06,   2.89210E+06,   2.89210E+06
C:/temp/Job-39.odb,Step-1,Increment      1: Step Time =    1.000,"P-39-1",           882,       57.5441,       23.8680,            0.,NA,NA,"",   2.92076E+06,   2.50241E+06,   2.50241E+06
C:/temp/Job-39.odb,Step-1,Increment      1: Step Time =    1.000,"P-39-1",           883,       22.5720,       142.908,            0.,NA,NA,"",   690.663E+03,  -660.963E+03,  -660.963E+03
C:/temp/Job-39.odb,Step-1,Increment      1: Step Time =    1.000,"P-39-1",           884,       175.168,       56.1673,            0.,NA,NA,"",   2.63688E+06,   2.14031E+06,   2.14031E+06
C:/temp/Job-39.odb,Step-1,Increment      1: Step Time =    1.000,"P-39-1",           885,       21.2182,       57.7330,            0.,NA,NA,"",   669.874E+03,  -634.334E+03,  -634.334E+03
C:/temp/Job-39.odb,Step-1,Increment      1: Step Time =    1.000,"P-39-1",           886,       140.859,       19.1560,            0.,NA,NA,"",   2.32265E+06,   2.38321E+06,   2.38321E+06
C:/temp/Job-39.odb,Step-1,Increment      1: Step Time =    1.000,"P-39-1",           887,       54.7532,       183.703,            0.,NA,NA,"",   3.46510E+06,   3.23062E+06,   3.23062E+06
C:/temp/Job-39.odb,Step-1,Increment      1: Step Time =    1.000,"P-39-1",           888,       18.0033,       59.3859,            0.,NA,NA,"",   627.715E+03,  -590.495E+03,  -590.495E+03
C:/temp/Job-39.odb,Step-1,Increment      1: Step Time =    1.000,"P-39-1",           889,       183.153,       140.672,            0.,NA,NA,"",   2.48604E+06,   2.19893E+06,   2.19893E+06
C:/temp/Job-39.odb,Step-1,Increment      1: Step Time =    1.000,"P-39-1",           890,       174.703,       144.426,            0.,NA,NA,"",   2.61477E+06,   2.11950E+06,   2.11950E+06
C:/temp/Job-39.odb,Step-1,Increment      1: Step Time =    1.000,"P-39-1",           891,       162.579,       161.859,            0.,NA,NA,"",   2.67023E+06,   2.54423E+06,   2.54423E+06
C:/temp/Job-39.odb,Step-1,Increment      1: Step Time =    1.000,"P-39-1",           892,       34.2091,       39.0941,            0.,NA,NA,"",   923.564E+03,   438.260E+03,   438.260E+03
C:/temp/Job-39.odb,Step-1,Increment      1: Step Time =    1.000,"P-39-1",           893,       37.7982,       166.331,            0.,NA,NA,"",   1.49160E+06,   1.23119E+06,   1.23119E+06
C:/temp/Job-39.odb,Step-1,Increment      1: Step Time =    1.000,"P-39-1",           894,       141.103,       177.750,            0.,NA,NA,"",   2.77869E+06,   2.86796E+06,   2.86796E+06
C:/temp/Job-39.odb,Step-1,Increment      1: Step Time =    1.000,"P-39-1",           895,       187.504,       144.555,            0.,NA,NA,"",   2.11135E+06,   2.04765E+06,   2.04765E+06
C:/temp/Job-39.odb,Step-1,Increment      1: Step Time =    1.000,"P-39-1",           896,       15.0781,       55.3903,            0.,NA,NA,"",   440.757E+03,  -301.190E+03,  -301.190E+03
C:/temp/Job-39.odb,Step-1,Increment      1: Step Time =    1.000,"P-39-1",           897,       54.7714,       186.781,            0.,NA,NA,"",   3.66663E+06,   3.49424E+06,   3.49424E+06
C:/temp/Job-39.odb,Step-1,Increment      1: Step Time =    1.000,"P-39-1",           898,       145.740,       14.2601,            0.,NA,NA,"",   1.49812E+06,   1.46014E+06,   1.46014E+06
C:/temp/Job-39.odb,Step-1,Increment      1: Step Time =    1.000,"P-39-1",           899,       177.297,       139.847,            0.,NA,NA,"",   2.62246E+06,   2.07119E+06,   2.07119E+06
C:/temp/Job-39.odb,Step-1,Increment      1: Step Time =    1.000,"P-39-1",           900,       23.4538,       148.161,            0.,NA,NA,"",   493.236E+03,  -424.219E+03,  -424.219E+03
C:/temp/Job-39.odb,Step-1,Increment      1: Step Time =    1.000,"P-39-1",           901,       175.380,       52.7733,            0.,NA,NA,"",   2.58501E+06,   2.16841E+06,   2.16841E+06
C:/temp/Job-39.odb,Step-1,Increment      1: Step Time =    1.000,"P-39-1",           902,       53.4814,       26.0178,            0.,NA,NA,"",   2.58429E+06,   2.16537E+06,   2.16537E+06
C:/temp/Job-39.odb,Step-1,Increment      1: Step Time =    1.000,"P-39-1",           903,       178.259,       150.059,            0.,NA,NA,"",   2.45217E+06,   2.13220E+06,   2.13220E+06
C:/temp/Job-39.odb,Step-1,Increment      1: Step Time =    1.000,"P-39-1",           904,       34.3664,       159.710,            0.,NA,NA,"",   881.672E+03,   149.443E+03,   149.443E+03
C:/temp/Job-39.odb,Step-1,Increment      1: Step Time =    1.000,"P-39-1",           905,       40.7029,       36.5850,            0.,NA,NA,"",   1.26514E+06,   543.526E+03,   543.526E+03
C:/temp/Job-39.odb,Step-1,Increment      1: Step Time =    1.000,"P-39-1",           906,       159.426,       165.455,            0.,NA,NA,"",   2.69030E+06,   2.61847E+06,   2.61847E+06
C:/temp/Job-39.odb,Step-1,Increment      1: Step Time =    1.000,"P-39-1",           907,       24.5134,       53.1573,            0.,NA,NA,"",   601.761E+03,  -559.013E+03,  -559.013E+03
C:/temp/Job-39.odb,Step-1,Increment      1: Step Time =    1.000,"P-39-1",           908,       145.084,       25.0074,            0.,NA,NA,"",   2.93402E+06,   3.00386E+06,   3.00386E+06
C:/temp/Job-39.odb,Step-1,Increment      1: Step Time =    1.000,"P-39-1",           909,       51.5075,       175.937,            0.,NA,NA,"",   2.71091E+06,   2.34855E+06,   2.34855E+06
C:/temp/Job-39.odb,Step-1,Increment      1: Step Time =    1.000,"P-39-1",           910,       140.841,       182.822,            0.,NA,NA,"",   2.01869E+06,   2.05770E+06,   2.05770E+06
C:/temp/Job-39.odb,Step-1,Increment      1: Step Time =    1.000,"P-39-1",           911,       149.001,       172.740,            0.,NA,NA,"",   2.92394E+06,   2.96934E+06,   2.96934E+06
C:/temp/Job-39.odb,Step-1,Increment      1: Step Time =    1.000,"P-39-1",           912,       181.451,       61.0103,            0.,NA,NA,"",   2.57378E+06,   2.19703E+06,   2.19703E+06
C:/temp/Job-39.odb,Step-1,Increment      1: Step Time =    1.000,"P-39-1",           913,       18.4420,       143.461,            0.,NA,NA,"",   537.642E+03,  -478.004E+03,  -478.004E+03
C:/temp/Job-39.odb,Step-1,Increment      1: Step Time =    1.000,"P-39-1",           914,       60.2392,       18.0534,            0.,NA,NA,"",   3.44595E+06,   3.12066E+06,   3.12066E+06
C:/temp/Job-39.odb,Step-1,Increment      1: Step Time =    1.000,"P-39-1",           915,       15.5089,       110.915,            0.,NA,NA,"",   529.177E+03,  -598.147E+03,  -598.147E+03
C:/temp/Job-39.odb,Step-1,Increment      1: Step Time =    1.000,"P-39-1",           916,       105.675,       12.2820,            0.,NA,NA,"",   2.43281E+06,   2.44090E+06,   2.44090E+06
C:/temp/Job-39.odb,Step-1,Increment      1: Step Time =    1.000,"P-39-1",           917,       164.102,       13.2769,            0.,NA,NA,"",   1.23763E+06,   1.16280E+06,   1.16280E+06
C:/temp/Job-39.odb,Step-1,Increment      1: Step Time =    1.000,"P-39-1",           918,       8.84541,       163.789,            0.,NA,NA,"",   992.757E+03,   1.11259E+06,   1.11259E+06
C:/temp/Job-39.odb,Step-1,Increment      1: Step Time =    1.000,"P-39-1",           919,       13.8997,       35.3569,            0.,NA,NA,"",   1.10727E+06,   1.21095E+06,   1.21095E+06
C:/temp/Job-39.odb,Step-1,Increment      1: Step Time =    1.000,"P-39-1",           920,       34.9372,       9.11312,            0.,NA,NA,"",   4.12297E+06,   4.08986E+06,   4.08986E+06
C:/temp/Job-39.odb,Step-1,Increment      1: Step Time =    1.000,"P-39-1",           921,       189.897,       164.627,            0.,NA,NA,"",   1.26923E+06,   1.26167E+06,   1.26167E+06
C:/temp/Job-39.odb,Step-1,Increment      1: Step Time =    1.000,"P-39-1",           922,       164.660,       190.585,            0.,NA,NA,"",   946.044E+03,   879.054E+03,   879.054E+03
C:/temp/Job-39.odb,Step-1,Increment      1: Step Time =    1.000,"P-39-1",           923,       35.5714,       188.115,            0.,NA,NA,"",   3.80768E+06,   3.76062E+06,   3.76062E+06
C:/temp/Job-39.odb,Step-1,Increment      1: Step Time =    1.000,"P-39-1",           924,       190.616,       38.9690,            0.,NA,NA,"",   1.28156E+06,   1.29954E+06,   1.29954E+06
C:/temp/Job-39.odb,Step-1,Increment      1: Step Time =    1.000,"P-39-1",           925,       47.0414,       24.4197,            0.,NA,NA,"",   2.59409E+06,   2.29647E+06,   2.29647E+06
C:/temp/Job-39.odb,Step-1,Increment      1: Step Time =    1.000,"P-39-1",           926,       177.431,       49.1109,            0.,NA,NA,"",   2.42498E+06,   2.11170E+06,   2.11170E+06
C:/temp/Job-39.odb,Step-1,Increment      1: Step Time =    1.000,"P-39-1",           927,       17.7182,       153.047,            0.,NA,NA,"",   313.995E+03,   218.184E+03,   218.184E+03
C:/temp/Job-39.odb,Step-1,Increment      1: Step Time =    1.000,"P-39-1",           928,       23.2415,       49.9270,            0.,NA,NA,"",   418.567E+03,  -217.710E+03,  -217.710E+03
C:/temp/Job-39.odb,Step-1,Increment      1: Step Time =    1.000,"P-39-1",           929,       151.256,       22.9165,            0.,NA,NA,"",   2.37667E+06,   2.36337E+06,   2.36337E+06
C:/temp/Job-39.odb,Step-1,Increment      1: Step Time =    1.000,"P-39-1",           930,       46.8583,       176.372,            0.,NA,NA,"",   2.64782E+06,   2.35567E+06,   2.35567E+06
C:/temp/Job-39.odb,Step-1,Increment      1: Step Time =    1.000,"P-39-1",           931,       185.939,       38.2728,            0.,NA,NA,"",   1.52133E+06,   1.48638E+06,   1.48638E+06
C:/temp/Job-39.odb,Step-1,Increment      1: Step Time =    1.000,"P-39-1",           932,       164.084,       17.3524,            0.,NA,NA,"",   1.52099E+06,   1.44146E+06,   1.44146E+06
C:/temp/Job-39.odb,Step-1,Increment      1: Step Time =    1.000,"P-39-1",           933,       18.2097,       35.2672,            0.,NA,NA,"",   1.14475E+06,   1.21871E+06,   1.21871E+06
C:/temp/Job-39.odb,Step-1,Increment      1: Step Time =    1.000,"P-39-1",           934,       185.139,       164.708,            0.,NA,NA,"",   1.50252E+06,   1.45704E+06,   1.45704E+06
C:/temp/Job-39.odb,Step-1,Increment      1: Step Time =    1.000,"P-39-1",           935,       36.7523,       184.122,            0.,NA,NA,"",   3.37261E+06,   3.29778E+06,   3.29778E+06
C:/temp/Job-39.odb,Step-1,Increment      1: Step Time =    1.000,"P-39-1",           936,       164.373,       185.923,            0.,NA,NA,"",   1.30006E+06,   1.22036E+06,   1.22036E+06
C:/temp/Job-39.odb,Step-1,Increment      1: Step Time =    1.000,"P-39-1",           937,       13.3931,       162.916,            0.,NA,NA,"",   937.582E+03,   1.03941E+06,   1.03941E+06
C:/temp/Job-39.odb,Step-1,Increment      1: Step Time =    1.000,"P-39-1",           938,       34.8819,       13.4704,            0.,NA,NA,"",   3.61060E+06,   3.55415E+06,   3.55415E+06
C:/temp/Job-39.odb,Step-1,Increment      1: Step Time =    1.000,"P-39-1",           939,       145.383,       9.35305,            0.,NA,NA,"",   872.407E+03,   758.372E+03,   758.372E+03
C:/temp/Job-39.odb,Step-1,Increment      1: Step Time =    1.000,"P-39-1",           940,       54.9355,       191.000,            0.,NA,NA,"",   3.97905E+06,   3.88216E+06,   3.88216E+06
C:/temp/Job-39.odb,Step-1,Increment      1: Step Time =    1.000,"P-39-1",           941,       9.64936,       54.8233,            0.,NA,NA,"",   304.664E+03,  -86.5265E+03,  -86.5265E+03
C:/temp/Job-39.odb,Step-1,Increment      1: Step Time =    1.000,"P-39-1",           942,       191.464,       144.633,            0.,NA,NA,"",   1.79927E+06,   1.89602E+06,   1.89602E+06
C:/temp/Job-39.odb,Step-1,Increment      1: Step Time =    1.000,"P-39-1",           943,       32.6266,       165.666,            0.,NA,NA,"",   1.34115E+06,   1.19496E+06,   1.19496E+06
C:/temp/Job-39.odb,Step-1,Increment      1: Step Time =    1.000,"P-39-1",           944,       35.7443,       34.7376,            0.,NA,NA,"",   1.33837E+06,   1.11001E+06,   1.11001E+06
C:/temp/Job-39.odb,Step-1,Increment      1: Step Time =    1.000,"P-39-1",           945,       162.744,       168.544,            0.,NA,NA,"",   2.41820E+06,   2.32185E+06,   2.32185E+06
C:/temp/Job-39.odb,Step-1,Increment      1: Step Time =    1.000,"P-39-1",           946,       149.625,       181.860,            0.,NA,NA,"",   1.91175E+06,   1.88195E+06,   1.88195E+06
C:/temp/Job-39.odb,Step-1,Increment      1: Step Time =    1.000,"P-39-1",           947,       154.343,       172.700,            0.,NA,NA,"",   2.58451E+06,   2.56860E+06,   2.56860E+06
C:/temp/Job-39.odb,Step-1,Increment      1: Step Time =    1.000,"P-39-1",           948,       145.451,       186.887,            0.,NA,NA,"",   1.36679E+06,   1.32299E+06,   1.32299E+06
C:/temp/Job-39.odb,Step-1,Increment      1: Step Time =    1.000,"P-39-1",           949,       181.603,       155.744,            0.,NA,NA,"",   2.05579E+06,   1.89278E+06,   1.89278E+06
C:/temp/Job-39.odb,Step-1,Increment      1: Step Time =    1.000,"P-39-1",           950,       14.7808,       49.7702,            0.,NA,NA,"",   276.406E+03,   95.0052E+03,   95.0052E+03
C:/temp/Job-39.odb,Step-1,Increment      1: Step Time =    1.000,"P-39-1",           951,       50.4774,       186.293,            0.,NA,NA,"",   3.64219E+06,   3.48954E+06,   3.48954E+06
C:/temp/Job-39.odb,Step-1,Increment      1: Step Time =    1.000,"P-39-1",           952,       150.442,       13.7305,            0.,NA,NA,"",   1.41682E+06,   1.35117E+06,   1.35117E+06
C:/temp/Job-39.odb,Step-1,Increment      1: Step Time =    1.000,"P-39-1",           953,       182.584,       151.882,            0.,NA,NA,"",   2.16067E+06,   1.97578E+06,   1.97578E+06
C:/temp/Job-39.odb,Step-1,Increment      1: Step Time =    1.000,"P-39-1",           954,       185.620,       156.822,            0.,NA,NA,"",   1.73671E+06,   1.67038E+06,   1.67038E+06
C:/temp/Job-39.odb,Step-1,Increment      1: Step Time =    1.000,"P-39-1",           955,       165.719,       165.253,            0.,NA,NA,"",   2.41692E+06,   2.28378E+06,   2.28378E+06
C:/temp/Job-39.odb,Step-1,Increment      1: Step Time =    1.000,"P-39-1",           956,       160.004,       171.692,            0.,NA,NA,"",   2.37425E+06,   2.30342E+06,   2.30342E+06
C:/temp/Job-39.odb,Step-1,Increment      1: Step Time =    1.000,"P-39-1",           957,       37.4473,       29.9786,            0.,NA,NA,"",   1.84302E+06,   1.62589E+06,   1.62589E+06
C:/temp/Job-39.odb,Step-1,Increment      1: Step Time =    1.000,"P-39-1",           958,       27.2199,       164.680,            0.,NA,NA,"",   1.19210E+06,   1.14428E+06,   1.14428E+06
C:/temp/Job-39.odb,Step-1,Increment      1: Step Time =    1.000,"P-39-1",           959,       15.5920,       147.449,            0.,NA,NA,"",   324.993E+03,  -55.8914E+03,  -55.8914E+03
C:/temp/Job-39.odb,Step-1,Increment      1: Step Time =    1.000,"P-39-1",           960,       180.287,       45.3029,            0.,NA,NA,"",   2.16275E+06,   1.95811E+06,   1.95811E+06
C:/temp/Job-39.odb,Step-1,Increment      1: Step Time =    1.000,"P-39-1",           961,       49.7511,       18.7692,            0.,NA,NA,"",   3.19599E+06,   2.97304E+06,   2.97304E+06
C:/temp/Job-39.odb,Step-1,Increment      1: Step Time =    1.000,"P-39-1",           962,       167.865,       17.2263,            0.,NA,NA,"",   1.42557E+06,   1.35019E+06,   1.35019E+06
C:/temp/Job-39.odb,Step-1,Increment      1: Step Time =    1.000,"P-39-1",           963,       186.353,       34.0408,            0.,NA,NA,"",   1.38610E+06,   1.36006E+06,   1.36006E+06
C:/temp/Job-39.odb,Step-1,Increment      1: Step Time =    1.000,"P-39-1",           964,       18.2272,       31.1202,            0.,NA,NA,"",   1.54866E+06,   1.63206E+06,   1.63206E+06
C:/temp/Job-39.odb,Step-1,Increment      1: Step Time =    1.000,"P-39-1",           965,       14.6984,       167.049,            0.,NA,NA,"",   1.33703E+06,   1.44277E+06,   1.44277E+06
C:/temp/Job-39.odb,Step-1,Increment      1: Step Time =    1.000,"P-39-1",           966,       28.8707,       182.133,            0.,NA,NA,"",   3.12144E+06,   3.09036E+06,   3.09036E+06
C:/temp/Job-39.odb,Step-1,Increment      1: Step Time =    1.000,"P-39-1",           967,       184.970,       169.499,            0.,NA,NA,"",   1.37684E+06,   1.33933E+06,   1.33933E+06
C:/temp/Job-39.odb,Step-1,Increment      1: Step Time =    1.000,"P-39-1",           968,       150.680,       17.5272,            0.,NA,NA,"",   1.80614E+06,   1.76228E+06,   1.76228E+06
C:/temp/Job-39.odb,Step-1,Increment      1: Step Time =    1.000,"P-39-1",           969,       168.811,       185.600,            0.,NA,NA,"",   1.25881E+06,   1.18799E+06,   1.18799E+06
C:/temp/Job-39.odb,Step-1,Increment      1: Step Time =    1.000,"P-39-1",           970,       30.4231,       13.9284,            0.,NA,NA,"",   3.58165E+06,   3.55201E+06,   3.55201E+06
C:/temp/Job-39.odb,Step-1,Increment      1: Step Time =    1.000,"P-39-1",           971,       46.5944,       180.941,            0.,NA,NA,"",   3.10807E+06,   2.89624E+06,   2.89624E+06
C:/temp/Job-39.odb,Step-1,Increment      1: Step Time =    1.000,"P-39-1",           972,       19.5901,       49.5022,            0.,NA,NA,"",   340.329E+03,  -60.7151E+03,  -60.7151E+03
C:/temp/Job-39.odb,Step-1,Increment      1: Step Time =    1.000,"P-39-1",           973,       190.803,       154.090,            0.,NA,NA,"",   1.45788E+06,   1.50450E+06,   1.50450E+06
C:/temp/Job-39.odb,Step-1,Increment      1: Step Time =    1.000,"P-39-1",           974,       150.226,       186.326,            0.,NA,NA,"",   1.40509E+06,   1.33899E+06,   1.33899E+06
C:/temp/Job-39.odb,Step-1,Increment      1: Step Time =    1.000,"P-39-1",           975,       157.498,       175.356,            0.,NA,NA,"",   2.25365E+06,   2.19757E+06,   2.19757E+06
C:/temp/Job-39.odb,Step-1,Increment      1: Step Time =    1.000,"P-39-1",           976,       14.7681,       44.7771,            0.,NA,NA,"",   365.401E+03,   409.071E+03,   409.071E+03
C:/temp/Job-39.odb,Step-1,Increment      1: Step Time =    1.000,"P-39-1",           977,       155.128,       13.8795,            0.,NA,NA,"",   1.35608E+06,   1.27317E+06,   1.27317E+06
C:/temp/Job-39.odb,Step-1,Increment      1: Step Time =    1.000,"P-39-1",           978,       45.8059,       185.760,            0.,NA,NA,"",   3.58167E+06,   3.45384E+06,   3.45384E+06
C:/temp/Job-39.odb,Step-1,Increment      1: Step Time =    1.000,"P-39-1",           979,       166.244,       172.038,            0.,NA,NA,"",   2.09777E+06,   1.99619E+06,   1.99619E+06
C:/temp/Job-39.odb,Step-1,Increment      1: Step Time =    1.000,"P-39-1",           980,       22.9868,       158.471,            0.,NA,NA,"",   598.341E+03,   580.261E+03,   580.261E+03
C:/temp/Job-39.odb,Step-1,Increment      1: Step Time =    1.000,"P-39-1",           981,       43.8219,       27.7197,            0.,NA,NA,"",   2.19180E+06,   1.89433E+06,   1.89433E+06
C:/temp/Job-39.odb,Step-1,Increment      1: Step Time =    1.000,"P-39-1",           982,       12.0566,       146.665,            0.,NA,NA,"",   287.507E+03,  -42.5755E+03,  -42.5755E+03
C:/temp/Job-39.odb,Step-1,Increment      1: Step Time =    1.000,"P-39-1",           983,       185.503,       54.1327,            0.,NA,NA,"",   2.15744E+06,   2.03570E+06,   2.03570E+06
C:/temp/Job-39.odb,Step-1,Increment      1: Step Time =    1.000,"P-39-1",           984,       54.8187,       14.2165,            0.,NA,NA,"",   3.59962E+06,   3.40923E+06,   3.40923E+06
C:/temp/Job-39.odb,Step-1,Increment      1: Step Time =    1.000,"P-39-1",           985,       172.341,       13.9702,            0.,NA,NA,"",   1.18727E+06,   1.12992E+06,   1.12992E+06
C:/temp/Job-39.odb,Step-1,Increment      1: Step Time =    1.000,"P-39-1",           986,       164.620,       20.6149,            0.,NA,NA,"",   1.71362E+06,   1.62963E+06,   1.62963E+06
C:/temp/Job-39.odb,Step-1,Increment      1: Step Time =    1.000,"P-39-1",           987,       187.132,       29.9027,            0.,NA,NA,"",   1.28564E+06,   1.25781E+06,   1.25781E+06
C:/temp/Job-39.odb,Step-1,Increment      1: Step Time =    1.000,"P-39-1",           988,       14.5563,       25.9587,            0.,NA,NA,"",   2.06657E+06,   2.18941E+06,   2.18941E+06
C:/temp/Job-39.odb,Step-1,Increment      1: Step Time =    1.000,"P-39-1",           989,       21.6897,       34.7619,            0.,NA,NA,"",   1.20677E+06,   1.24565E+06,   1.24565E+06
C:/temp/Job-39.odb,Step-1,Increment      1: Step Time =    1.000,"P-39-1",           990,       15.4391,       173.566,            0.,NA,NA,"",   2.02584E+06,   2.13617E+06,   2.13617E+06
C:/temp/Job-39.odb,Step-1,Increment      1: Step Time =    1.000,"P-39-1",           991,       17.2672,       162.904,            0.,NA,NA,"",    955.67E+03,   1.03047E+06,   1.03047E+06
C:/temp/Job-39.odb,Step-1,Increment      1: Step Time =    1.000,"P-39-1",           992,       26.9329,       186.154,            0.,NA,NA,"",   3.57173E+06,   3.56164E+06,   3.56164E+06
C:/temp/Job-39.odb,Step-1,Increment      1: Step Time =    1.000,"P-39-1",           993,       37.6625,       179.766,            0.,NA,NA,"",   2.90317E+06,   2.79357E+06,   2.79357E+06
C:/temp/Job-39.odb,Step-1,Increment      1: Step Time =    1.000,"P-39-1",           994,       180.377,       164.332,            0.,NA,NA,"",   1.75842E+06,   1.66354E+06,   1.66354E+06
C:/temp/Job-39.odb,Step-1,Increment      1: Step Time =    1.000,"P-39-1",           995,       184.749,       174.494,            0.,NA,NA,"",   1.28611E+06,   1.24730E+06,   1.24730E+06
C:/temp/Job-39.odb,Step-1,Increment      1: Step Time =    1.000,"P-39-1",           996,       25.6600,       14.0870,            0.,NA,NA,"",   3.54762E+06,   3.54464E+06,   3.54464E+06
C:/temp/Job-39.odb,Step-1,Increment      1: Step Time =    1.000,"P-39-1",           997,       38.5177,       18.5986,            0.,NA,NA,"",   3.12359E+06,   3.01015E+06,   3.01015E+06
C:/temp/Job-39.odb,Step-1,Increment      1: Step Time =    1.000,"P-39-1",           998,       173.103,       184.875,            0.,NA,NA,"",   1.23239E+06,   1.17329E+06,   1.17329E+06
C:/temp/Job-39.odb,Step-1,Increment      1: Step Time =    1.000,"P-39-1",           999,       164.146,       181.487,            0.,NA,NA,"",   1.59668E+06,   1.51355E+06,   1.51355E+06
C:/temp/Job-39.odb,Step-1,Increment      1: Step Time =    1.000,"P-39-1",          1000,       150.314,       190.962,            0.,NA,NA,"",   857.604E+03,   744.908E+03,   744.908E+03
C:/temp/Job-39.odb,Step-1,Increment      1: Step Time =    1.000,"P-39-1",          1001,       154.996,       185.804,            0.,NA,NA,"",   1.40303E+06,   1.32458E+06,   1.32458E+06
C:/temp/Job-39.odb,Step-1,Increment      1: Step Time =    1.000,"P-39-1",          1002,       186.690,       153.022,            0.,NA,NA,"",   1.82093E+06,   1.76208E+06,   1.76208E+06
C:/temp/Job-39.odb,Step-1,Increment      1: Step Time =    1.000,"P-39-1",          1003,       40.1272,       25.2451,            0.,NA,NA,"",   2.39202E+06,   2.18561E+06,   2.18561E+06
C:/temp/Job-39.odb,Step-1,Increment      1: Step Time =    1.000,"P-39-1",          1004,       175.606,       163.525,            0.,NA,NA,"",   2.03571E+06,   1.89275E+06,   1.89275E+06
C:/temp/Job-39.odb,Step-1,Increment      1: Step Time =    1.000,"P-39-1",          1005,       38.0881,       175.253,            0.,NA,NA,"",   2.44212E+06,   2.28938E+06,   2.28938E+06
C:/temp/Job-39.odb,Step-1,Increment      1: Step Time =    1.000,"P-39-1",          1006,       21.8251,       163.947,            0.,NA,NA,"",   1.05397E+06,   1.08127E+06,   1.08127E+06
C:/temp/Job-39.odb,Step-1,Increment      1: Step Time =    1.000,"P-39-1",          1007,       24.4229,       37.5076,            0.,NA,NA,"",   950.318E+03,   939.564E+03,   939.564E+03
C:/temp/Job-39.odb,Step-1,Increment      1: Step Time =    1.000,"P-39-1",          1008,       175.817,       34.5026,            0.,NA,NA,"",   1.94190E+06,   1.81932E+06,   1.81932E+06
C:/temp/Job-39.odb,Step-1,Increment      1: Step Time =    1.000,"P-39-1",          1009,       161.998,       23.3844,            0.,NA,NA,"",   1.99092E+06,   1.91075E+06,   1.91075E+06
C:/temp/Job-39.odb,Step-1,Increment      1: Step Time =    1.000,"P-39-1",          1010,       155.033,       9.11069,            0.,NA,NA,"",   884.763E+03,   785.979E+03,   785.979E+03
C:/temp/Job-39.odb,Step-1,Increment      1: Step Time =    1.000,"P-39-1",          1011,       45.1388,       190.588,            0.,NA,NA,"",   4.06638E+06,   4.00566E+06,   4.00566E+06
C:/temp/Job-39.odb,Step-1,Increment      1: Step Time =    1.000,"P-39-1",          1012,       9.65032,       44.9528,            0.,NA,NA,"",   363.678E+03,   415.545E+03,   415.545E+03
C:/temp/Job-39.odb,Step-1,Increment      1: Step Time =    1.000,"P-39-1",          1013,       11.9231,       150.673,            0.,NA,NA,"",   222.829E+03,   210.350E+03,   210.350E+03
C:/temp/Job-39.odb,Step-1,Increment      1: Step Time =    1.000,"P-39-1",          1014,       183.746,       48.6900,            0.,NA,NA,"",   2.08237E+06,   1.92244E+06,   1.92244E+06
C:/temp/Job-39.odb,Step-1,Increment      1: Step Time =    1.000,"P-39-1",          1015,       49.6325,       14.3137,            0.,NA,NA,"",   3.56830E+06,   3.41657E+06,   3.41657E+06
C:/temp/Job-39.odb,Step-1,Increment      1: Step Time =    1.000,"P-39-1",          1016,       171.152,       17.5442,            0.,NA,NA,"",   1.38551E+06,   1.31771E+06,   1.31771E+06
C:/temp/Job-39.odb,Step-1,Increment      1: Step Time =    1.000,"P-39-1",          1017,       173.866,       9.88143,            0.,NA,NA,"",   980.703E+03,   939.155E+03,   939.155E+03
C:/temp/Job-39.odb,Step-1,Increment      1: Step Time =    1.000,"P-39-1",          1018,       183.889,       29.6923,            0.,NA,NA,"",   1.39410E+06,   1.35543E+06,   1.35543E+06
C:/temp/Job-39.odb,Step-1,Increment      1: Step Time =    1.000,"P-39-1",          1019,       159.681,       13.5942,            0.,NA,NA,"",   1.30034E+06,   1.21852E+06,   1.21852E+06
C:/temp/Job-39.odb,Step-1,Increment      1: Step Time =    1.000,"P-39-1",          1020,       184.688,       42.3462,            0.,NA,NA,"",   1.79054E+06,   1.70435E+06,   1.70435E+06
C:/temp/Job-39.odb,Step-1,Increment      1: Step Time =    1.000,"P-39-1",          1021,       18.8557,       27.1823,            0.,NA,NA,"",   1.97507E+06,   2.04921E+06,   2.04921E+06
C:/temp/Job-39.odb,Step-1,Increment      1: Step Time =    1.000,"P-39-1",          1022,       9.83055,       25.3475,            0.,NA,NA,"",   2.06972E+06,   2.24058E+06,   2.24058E+06
C:/temp/Job-39.odb,Step-1,Increment      1: Step Time =    1.000,"P-39-1",          1023,       20.6617,       174.500,            0.,NA,NA,"",   2.20123E+06,   2.25282E+06,   2.25282E+06
C:/temp/Job-39.odb,Step-1,Increment      1: Step Time =    1.000,"P-39-1",          1024,       13.1390,       158.655,            0.,NA,NA,"",   598.265E+03,   675.886E+03,   675.886E+03
C:/temp/Job-39.odb,Step-1,Increment      1: Step Time =    1.000,"P-39-1",          1025,       14.3076,       40.0126,            0.,NA,NA,"",   696.275E+03,   775.432E+03,   775.432E+03
C:/temp/Job-39.odb,Step-1,Increment      1: Step Time =    1.000,"P-39-1",          1026,       25.8105,       190.637,            0.,NA,NA,"",   4.07826E+06,   4.07225E+06,   4.07225E+06
C:/temp/Job-39.odb,Step-1,Increment      1: Step Time =    1.000,"P-39-1",          1027,       25.8730,       180.448,            0.,NA,NA,"",   2.90030E+06,   2.89249E+06,   2.89249E+06
C:/temp/Job-39.odb,Step-1,Increment      1: Step Time =    1.000,"P-39-1",          1028,       189.787,       174.740,            0.,NA,NA,"",   1.16773E+06,   1.12628E+06,   1.12628E+06
C:/temp/Job-39.odb,Step-1,Increment      1: Step Time =    1.000,"P-39-1",          1029,       179.866,       174.028,            0.,NA,NA,"",   1.45567E+06,   1.39984E+06,   1.39984E+06
C:/temp/Job-39.odb,Step-1,Increment      1: Step Time =    1.000,"P-39-1",          1030,       41.9310,       180.391,            0.,NA,NA,"",   3.00077E+06,   2.84686E+06,   2.84686E+06
C:/temp/Job-39.odb,Step-1,Increment      1: Step Time =    1.000,"P-39-1",          1031,       180.855,       159.856,            0.,NA,NA,"",   1.90858E+06,   1.78200E+06,   1.78200E+06
C:/temp/Job-39.odb,Step-1,Increment      1: Step Time =    1.000,"P-39-1",          1032,       172.068,       180.260,            0.,NA,NA,"",   1.47618E+06,   1.40370E+06,   1.40370E+06
C:/temp/Job-39.odb,Step-1,Increment      1: Step Time =    1.000,"P-39-1",          1033,       31.2651,       19.3272,            0.,NA,NA,"",   2.99258E+06,   2.93956E+06,   2.93956E+06
C:/temp/Job-39.odb,Step-1,Increment      1: Step Time =    1.000,"P-39-1",          1034,       39.5142,       13.9194,            0.,NA,NA,"",   3.59518E+06,   3.51359E+06,   3.51359E+06
C:/temp/Job-39.odb,Step-1,Increment      1: Step Time =    1.000,"P-39-1",          1035,       159.716,       185.901,            0.,NA,NA,"",   1.35716E+06,   1.27539E+06,   1.27539E+06
C:/temp/Job-39.odb,Step-1,Increment      1: Step Time =    1.000,"P-39-1",          1036,       170.645,       172.366,            0.,NA,NA,"",   1.87922E+06,   1.78126E+06,   1.78126E+06
C:/temp/Job-39.odb,Step-1,Increment      1: Step Time =    1.000,"P-39-1",          1037,       44.3738,       14.4780,            0.,NA,NA,"",   3.56012E+06,   3.45031E+06,   3.45031E+06
C:/temp/Job-39.odb,Step-1,Increment      1: Step Time =    1.000,"P-39-1",          1038,       185.889,       46.2236,            0.,NA,NA,"",   1.87814E+06,   1.78907E+06,   1.78907E+06
C:/temp/Job-39.odb,Step-1,Increment      1: Step Time =    1.000,"P-39-1",          1039,       12.6347,       154.488,            0.,NA,NA,"",   326.737E+03,   371.604E+03,   371.604E+03
C:/temp/Job-39.odb,Step-1,Increment      1: Step Time =    1.000,"P-39-1",          1040,       49.7340,       9.52788,            0.,NA,NA,"",   4.00932E+06,   3.93162E+06,   3.93162E+06
C:/temp/Job-39.odb,Step-1,Increment      1: Step Time =    1.000,"P-39-1",          1041,       189.623,       47.4553,            0.,NA,NA,"",   1.64501E+06,   1.65797E+06,   1.65797E+06
C:/temp/Job-39.odb,Step-1,Increment      1: Step Time =    1.000,"P-39-1",          1042,       8.03056,       150.505,            0.,NA,NA,"",   204.089E+03,   210.715E+03,   210.715E+03
C:/temp/Job-39.odb,Step-1,Increment      1: Step Time =    1.000,"P-39-1",          1043,       170.920,       29.5607,            0.,NA,NA,"",   1.94958E+06,   1.84500E+06,   1.84500E+06
C:/temp/Job-39.odb,Step-1,Increment      1: Step Time =    1.000,"P-39-1",          1044,       166.819,       24.8636,            0.,NA,NA,"",   1.91292E+06,   1.82145E+06,   1.82145E+06
C:/temp/Job-39.odb,Step-1,Increment      1: Step Time =    1.000,"P-39-1",          1045,       25.6889,       169.927,            0.,NA,NA,"",   1.74567E+06,   1.73628E+06,   1.73628E+06
C:/temp/Job-39.odb,Step-1,Increment      1: Step Time =    1.000,"P-39-1",          1046,       26.5203,       32.7922,            0.,NA,NA,"",   1.44934E+06,   1.41954E+06,   1.41954E+06
C:/temp/Job-39.odb,Step-1,Increment      1: Step Time =    1.000,"P-39-1",          1047,       34.5114,       175.498,            0.,NA,NA,"",   2.42242E+06,   2.31552E+06,   2.31552E+06
C:/temp/Job-39.odb,Step-1,Increment      1: Step Time =    1.000,"P-39-1",          1048,       175.352,       168.557,            0.,NA,NA,"",   1.85227E+06,   1.74727E+06,   1.74727E+06
C:/temp/Job-39.odb,Step-1,Increment      1: Step Time =    1.000,"P-39-1",          1049,       32.3319,       27.7773,            0.,NA,NA,"",   2.02793E+06,   1.92816E+06,   1.92816E+06
C:/temp/Job-39.odb,Step-1,Increment      1: Step Time =    1.000,"P-39-1",          1050,       187.068,       25.5393,            0.,NA,NA,"",   1.21537E+06,   1.18273E+06,   1.18273E+06
C:/temp/Job-39.odb,Step-1,Increment      1: Step Time =    1.000,"P-39-1",          1051,       175.748,       15.7311,            0.,NA,NA,"",   1.23069E+06,   1.17809E+06,   1.17809E+06
C:/temp/Job-39.odb,Step-1,Increment      1: Step Time =    1.000,"P-39-1",          1052,       16.0808,       20.6543,            0.,NA,NA,"",   2.71221E+06,   2.80926E+06,   2.80926E+06
C:/temp/Job-39.odb,Step-1,Increment      1: Step Time =    1.000,"P-39-1",          1053,       17.3916,       175.616,            0.,NA,NA,"",   2.26244E+06,   2.34794E+06,   2.34794E+06
C:/temp/Job-39.odb,Step-1,Increment      1: Step Time =    1.000,"P-39-1",          1054,       22.0091,       184.083,            0.,NA,NA,"",   3.31798E+06,   3.33878E+06,   3.33878E+06
C:/temp/Job-39.odb,Step-1,Increment      1: Step Time =    1.000,"P-39-1",          1055,       184.318,       179.906,            0.,NA,NA,"",   1.20513E+06,   1.16437E+06,   1.16437E+06
C:/temp/Job-39.odb,Step-1,Increment      1: Step Time =    1.000,"P-39-1",          1056,       177.039,       183.688,            0.,NA,NA,"",   1.22003E+06,   1.16900E+06,   1.16900E+06
C:/temp/Job-39.odb,Step-1,Increment      1: Step Time =    1.000,"P-39-1",          1057,       25.9182,       18.4058,            0.,NA,NA,"",   3.08952E+06,   3.08575E+06,   3.08575E+06
C:/temp/Job-39.odb,Step-1,Increment      1: Step Time =    1.000,"P-39-1",          1058,       160.822,       177.150,            0.,NA,NA,"",   2.01322E+06,   1.93482E+06,   1.93482E+06
C:/temp/Job-39.odb,Step-1,Increment      1: Step Time =    1.000,"P-39-1",          1059,       174.288,       20.7909,            0.,NA,NA,"",   1.46072E+06,   1.39359E+06,   1.39359E+06
C:/temp/Job-39.odb,Step-1,Increment      1: Step Time =    1.000,"P-39-1",          1060,       179.326,       27.9666,            0.,NA,NA,"",   1.54213E+06,   1.47983E+06,   1.47983E+06
C:/temp/Job-39.odb,Step-1,Increment      1: Step Time =    1.000,"P-39-1",          1061,       23.0130,       28.2465,            0.,NA,NA,"",   1.86971E+06,   1.88934E+06,   1.88934E+06
C:/temp/Job-39.odb,Step-1,Increment      1: Step Time =    1.000,"P-39-1",          1062,       24.3905,       174.189,            0.,NA,NA,"",   2.23987E+06,   2.25322E+06,   2.25322E+06
C:/temp/Job-39.odb,Step-1,Increment      1: Step Time =    1.000,"P-39-1",          1063,       30.5552,       178.042,            0.,NA,NA,"",   2.65818E+06,   2.59929E+06,   2.59929E+06
C:/temp/Job-39.odb,Step-1,Increment      1: Step Time =    1.000,"P-39-1",          1064,       174.732,       173.968,            0.,NA,NA,"",   1.65239E+06,   1.57354E+06,   1.57354E+06
C:/temp/Job-39.odb,Step-1,Increment      1: Step Time =    1.000,"P-39-1",          1065,       25.2456,       21.9970,            0.,NA,NA,"",   2.65470E+06,   2.65651E+06,   2.65651E+06
C:/temp/Job-39.odb,Step-1,Increment      1: Step Time =    1.000,"P-39-1",          1066,       175.881,       179.180,            0.,NA,NA,"",   1.41403E+06,   1.35234E+06,   1.35234E+06
C:/temp/Job-39.odb,Step-1,Increment      1: Step Time =    1.000,"P-39-1",          1067,       20.5484,       14.4055,            0.,NA,NA,"",   3.49775E+06,   3.52385E+06,   3.52385E+06
C:/temp/Job-39.odb,Step-1,Increment      1: Step Time =    1.000,"P-39-1",          1068,       181.886,       185.222,            0.,NA,NA,"",   1.12514E+06,   1.08574E+06,   1.08574E+06
C:/temp/Job-39.odb,Step-1,Increment      1: Step Time =    1.000,"P-39-1",          1069,       16.4181,       179.352,            0.,NA,NA,"",   2.69919E+06,   2.78966E+06,   2.78966E+06
C:/temp/Job-39.odb,Step-1,Increment      1: Step Time =    1.000,"P-39-1",          1070,       186.563,       20.9941,            0.,NA,NA,"",   1.17538E+06,   1.13672E+06,   1.13672E+06
C:/temp/Job-39.odb,Step-1,Increment      1: Step Time =    1.000,"P-39-1",          1071,       185.369,       185.070,            0.,NA,NA,"",   1.10091E+06,   1.06308E+06,   1.06308E+06
C:/temp/Job-39.odb,Step-1,Increment      1: Step Time =    1.000,"P-39-1",          1072,       16.2202,       184.315,            0.,NA,NA,"",   3.31923E+06,   3.39238E+06,   3.39238E+06
C:/temp/Job-39.odb,Step-1,Increment      1: Step Time =    1.000,"P-39-1",          1073,       15.4485,       15.0617,            0.,NA,NA,"",   3.41177E+06,   3.48948E+06,   3.48948E+06
C:/temp/Job-39.odb,Step-1,Increment      1: Step Time =    1.000,"P-39-1",          1074,       181.405,       17.3032,            0.,NA,NA,"",   1.19156E+06,   1.15031E+06,   1.15031E+06
C:/temp/Job-39.odb,Step-1,Increment      1: Step Time =    1.000,"P-39-1",          1075,       161.936,       28.7406,            0.,NA,NA,"",   2.32313E+06,   2.23998E+06,   2.23998E+06
C:/temp/Job-39.odb,Step-1,Increment      1: Step Time =    1.000,"P-39-1",          1076,       170.867,       34.5736,            0.,NA,NA,"",   2.17596E+06,   2.03464E+06,   2.03464E+06
C:/temp/Job-39.odb,Step-1,Increment      1: Step Time =    1.000,"P-39-1",          1077,       29.6859,       38.3273,            0.,NA,NA,"",   928.745E+03,   811.410E+03,   811.410E+03
C:/temp/Job-39.odb,Step-1,Increment      1: Step Time =    1.000,"P-39-1",          1078,       37.6714,       171.023,            0.,NA,NA,"",   1.98304E+06,   1.78999E+06,   1.78999E+06
C:/temp/Job-39.odb,Step-1,Increment      1: Step Time =    1.000,"P-39-1",          1079,       170.187,       162.329,            0.,NA,NA,"",   2.34164E+06,   2.16614E+06,   2.16614E+06
C:/temp/Job-39.odb,Step-1,Increment      1: Step Time =    1.000,"P-39-1",          1080,       26.9874,       175.439,            0.,NA,NA,"",   2.38556E+06,   2.36740E+06,   2.36740E+06
C:/temp/Job-39.odb,Step-1,Increment      1: Step Time =    1.000,"P-39-1",          1081,       27.2126,       28.7733,            0.,NA,NA,"",   1.86458E+06,   1.83202E+06,   1.83202E+06
C:/temp/Job-39.odb,Step-1,Increment      1: Step Time =    1.000,"P-39-1",          1082,       182.415,       22.0633,            0.,NA,NA,"",   1.28210E+06,   1.24100E+06,   1.24100E+06
C:/temp/Job-39.odb,Step-1,Increment      1: Step Time =    1.000,"P-39-1",          1083,       21.1256,       18.5290,            0.,NA,NA,"",   3.03686E+06,   3.07117E+06,   3.07117E+06
C:/temp/Job-39.odb,Step-1,Increment      1: Step Time =    1.000,"P-39-1",          1084,       20.7368,       178.886,            0.,NA,NA,"",   2.74193E+06,   2.78632E+06,   2.78632E+06
C:/temp/Job-39.odb,Step-1,Increment      1: Step Time =    1.000,"P-39-1",          1085,       184.961,       10.8806,            0.,NA,NA,"",   1.01485E+06,   986.697E+03,   986.697E+03
C:/temp/Job-39.odb,Step-1,Increment      1: Step Time =    1.000,"P-39-1",          1086,       15.8046,       189.602,            0.,NA,NA,"",   3.95951E+06,   3.99902E+06,   3.99902E+06
C:/temp/Job-39.odb,Step-1,Increment      1: Step Time =    1.000,"P-39-1",          1087,       189.982,       184.894,            0.,NA,NA,"",   1.07811E+06,   1.03409E+06,   1.03409E+06
C:/temp/Job-39.odb,Step-1,Increment      1: Step Time =    1.000,"P-39-1",          1088,       10.2855,       15.1828,            0.,NA,NA,"",   3.26205E+06,   3.42892E+06,   3.42892E+06
C:/temp/Job-39.odb,Step-1,Increment      1: Step Time =    1.000,"P-39-1",          1089,       170.886,       25.1030,            0.,NA,NA,"",   1.76467E+06,   1.67728E+06,   1.67728E+06
C:/temp/Job-39.odb,Step-1,Increment      1: Step Time =    1.000,"P-39-1",          1090,       166.173,       34.0089,            0.,NA,NA,"",   2.36426E+06,   2.23308E+06,   2.23308E+06
C:/temp/Job-39.odb,Step-1,Increment      1: Step Time =    1.000,"P-39-1",          1091,       161.711,       33.3619,            0.,NA,NA,"",    2.5307E+06,   2.43543E+06,   2.43543E+06
C:/temp/Job-39.odb,Step-1,Increment      1: Step Time =    1.000,"P-39-1",          1092,       161.222,       37.4401,            0.,NA,NA,"",   2.68442E+06,   2.57527E+06,   2.57527E+06
C:/temp/Job-39.odb,Step-1,Increment      1: Step Time =    1.000,"P-39-1",          1093,       185.796,       16.0926,            0.,NA,NA,"",   1.11162E+06,   1.07361E+06,   1.07361E+06
C:/temp/Job-39.odb,Step-1,Increment      1: Step Time =    1.000,"P-39-1",          1094,       15.1985,       9.96853,            0.,NA,NA,"",   4.01527E+06,   4.05774E+06,   4.05774E+06
C:/temp/Job-39.odb,Step-1,Increment      1: Step Time =    1.000,"P-39-1",          1095,       185.023,       189.734,            0.,NA,NA,"",   999.284E+03,   972.205E+03,   972.205E+03
C:/temp/Job-39.odb,Step-1,Increment      1: Step Time =    1.000,"P-39-1",          1096,       10.9400,       184.143,            0.,NA,NA,"",   3.20222E+06,   3.35995E+06,   3.35995E+06
C:/temp/Job-39.odb,Step-1,Increment      1: Step Time =    1.000,"P-39-1",          1097,       190.498,       15.4413,            0.,NA,NA,"",   1.07443E+06,   1.02944E+06,   1.02944E+06
C:/temp/Job-39.odb,Step-1,Increment      1: Step Time =    1.000,"P-39-1",          1098,       165.355,       38.6999,            0.,NA,NA,"",   2.57420E+06,   2.41215E+06,   2.41215E+06
C:/temp/Job-39.odb,Step-1,Increment      1: Step Time =    1.000,"P-39-1",          1099,       157.340,       33.1541,            0.,NA,NA,"",   2.74603E+06,   2.70402E+06,   2.70402E+06
C:/temp/Job-39.odb,Step-1,Increment      1: Step Time =    1.000,"P-39-1",          1100,       8.97319,       141.326,            0.,NA,NA,"",   398.449E+03,  -349.432E+03,  -349.432E+03
C:/temp/Job-39.odb,Step-1,Increment      1: Step Time =    1.000,"P-39-1",          1101,       59.9825,       9.34927,            0.,NA,NA,"",   3.84720E+06,   3.72483E+06,   3.72483E+06
C:/temp/Job-39.odb,Step-1,Increment      1: Step Time =    1.000,"P-39-1",          1102,       140.738,       191.458,            0.,NA,NA,"",   731.628E+03,   445.525E+03,   445.525E+03
C:/temp/Job-39.odb,Step-1,Increment      1: Step Time =    1.000,"P-39-1",          1103,       188.492,       57.4146,            0.,NA,NA,"",   2.10288E+06,   2.08305E+06,   2.08305E+06
C:/temp/Job-39.odb,Step-1,Increment      1: Step Time =    1.000,"P-39-1",          1104,       25.4362,       47.3334,            0.,NA,NA,"",   424.728E+03,  -90.3973E+03,  -90.3973E+03
C:/temp/Job-39.odb,Step-1,Increment      1: Step Time =    1.000,"P-39-1",          1105,       154.039,       25.1730,            0.,NA,NA,"",   2.43340E+06,   2.40727E+06,   2.40727E+06
C:/temp/Job-39.odb,Step-1,Increment      1: Step Time =    1.000,"P-39-1",          1106,       25.2992,       9.44835,            0.,NA,NA,"",   4.06921E+06,   4.06634E+06,   4.06634E+06
C:/temp/Job-39.odb,Step-1,Increment      1: Step Time =    1.000,"P-39-1",          1107,       9.61137,       172.832,            0.,NA,NA,"",   1.86767E+06,   2.03204E+06,   2.03204E+06
C:/temp/Job-39.odb,Step-1,Increment      1: Step Time =    1.000,"P-39-1",          1108,       191.269,       29.9486,            0.,NA,NA,"",   1.16630E+06,   1.13695E+06,   1.13695E+06
C:/temp/Job-39.odb,Step-1,Increment      1: Step Time =    1.000,"P-39-1",          1109,       174.250,       189.759,            0.,NA,NA,"",   999.546E+03,   955.995E+03,   955.995E+03
C:/temp/Job-39.odb,Step-1,Increment      1: Step Time =    1.000,"P-39-1",          1110,       172.450,       157.271,            0.,NA,NA,"",   2.43139E+06,   2.18563E+06,   2.18563E+06
C:/temp/Job-39.odb,Step-1,Increment      1: Step Time =    1.000,"P-39-1",          1111,       176.156,       40.9783,            0.,NA,NA,"",   2.18839E+06,   1.99618E+06,   1.99618E+06
C:/temp/Job-39.odb,Step-1,Increment      1: Step Time =    1.000,"P-39-1",          1112,       157.437,       37.3311,            0.,NA,NA,"",   2.86896E+06,   2.82011E+06,   2.82011E+06
C:/temp/Job-39.odb,Step-1,Increment      1: Step Time =    1.000,"P-39-1",          1113,       163.478,       43.1906,            0.,NA,NA,"",   2.72018E+06,   2.54859E+06,   2.54859E+06
C:/temp/Job-39.odb,Step-1,Increment      1: Step Time =    1.000,"P-39-1",          1114,       156.305,       43.5898,            0.,NA,NA,"",   2.99530E+06,   2.96466E+06,   2.96466E+06
C:/temp/Job-39.odb,Step-1,Increment      1: Step Time =    1.000,"P-39-1",          1115,       24.6875,       41.7852,            0.,NA,NA,"",   591.563E+03,   549.014E+03,   549.014E+03
C:/temp/Job-39.odb,Step-1,Increment      1: Step Time =    1.000,"P-39-1",          1116,       157.239,       24.1219,            0.,NA,NA,"",   2.24248E+06,   2.18985E+06,   2.18985E+06
C:/temp/Job-39.odb,Step-1,Increment      1: Step Time =    1.000,"P-39-1",          1117,       174.407,       153.945,            0.,NA,NA,"",   2.47509E+06,   2.18075E+06,   2.18075E+06
C:/temp/Job-39.odb,Step-1,Increment      1: Step Time =    1.000,"P-39-1",          1118,       169.650,       4.66616,            0.,NA,NA,"",   645.457E+03,   621.314E+03,   621.314E+03
C:/temp/Job-39.odb,Step-1,Increment      1: Step Time =    1.000,"P-39-1",          1119,       164.724,       4.48794,            0.,NA,NA,"",   531.546E+03,   496.295E+03,   496.295E+03
C:/temp/Job-39.odb,Step-1,Increment      1: Step Time =    1.000,"P-39-1",          1120,       30.1828,       195.599,            0.,NA,NA,"",   4.66263E+06,   4.65796E+06,   4.65796E+06
C:/temp/Job-39.odb,Step-1,Increment      1: Step Time =    1.000,"P-39-1",          1121,       35.1364,       195.643,            0.,NA,NA,"",   4.68571E+06,   4.67698E+06,   4.67698E+06
C:/temp/Job-39.odb,Step-1,Increment      1: Step Time =    1.000,"P-39-1",          1122,       4.75846,       30.1170,            0.,NA,NA,"",   1.54563E+06,   1.72201E+06,   1.72201E+06
C:/temp/Job-39.odb,Step-1,Increment      1: Step Time =    1.000,"P-39-1",          1123,       4.68959,       35.1176,            0.,NA,NA,"",   1.11330E+06,   1.24886E+06,   1.24886E+06
C:/temp/Job-39.odb,Step-1,Increment      1: Step Time =    1.000,"P-39-1",          1124,       191.354,       149.386,            0.,NA,NA,"",   1.58979E+06,   1.66723E+06,   1.66723E+06
C:/temp/Job-39.odb,Step-1,Increment      1: Step Time =    1.000,"P-39-1",          1125,       190.940,       20.4056,            0.,NA,NA,"",   1.11681E+06,   1.06512E+06,   1.06512E+06
C:/temp/Job-39.odb,Step-1,Increment      1: Step Time =    1.000,"P-39-1",          1126,       155.085,       190.761,            0.,NA,NA,"",   898.165E+03,   799.033E+03,   799.033E+03
C:/temp/Job-39.odb,Step-1,Increment      1: Step Time =    1.000,"P-39-1",          1127,       8.20356,       154.875,            0.,NA,NA,"",   368.007E+03,   420.627E+03,   420.627E+03
C:/temp/Job-39.odb,Step-1,Increment      1: Step Time =    1.000,"P-39-1",          1128,       44.6993,       9.47936,            0.,NA,NA,"",   4.05549E+06,   4.00084E+06,   4.00084E+06
C:/temp/Job-39.odb,Step-1,Increment      1: Step Time =    1.000,"P-39-1",          1129,       185.104,       160.308,            0.,NA,NA,"",   1.63621E+06,   1.57544E+06,   1.57544E+06
C:/temp/Job-39.odb,Step-1,Increment      1: Step Time =    1.000,"P-39-1",          1130,       186.933,       93.4362,            0.,NA,NA,"",   1.71125E+06,   1.82958E+06,   1.82958E+06
C:/temp/Job-39.odb,Step-1,Increment      1: Step Time =    1.000,"P-39-1",          1131,       186.586,       86.5891,            0.,NA,NA,"",   1.96443E+06,   1.98956E+06,   1.98956E+06
C:/temp/Job-39.odb,Step-1,Increment      1: Step Time =    1.000,"P-39-1",          1132,       184.822,       59.2848,            0.,NA,NA,"",   2.39438E+06,   2.19804E+06,   2.19804E+06
C:/temp/Job-39.odb,Step-1,Increment      1: Step Time =    1.000,"P-39-1",          1133,       182.880,       56.1398,            0.,NA,NA,"",   2.39280E+06,   2.14643E+06,   2.14643E+06
C:/temp/Job-39.odb,Step-1,Increment      1: Step Time =    1.000,"P-39-1",          1134,       94.9390,       183.905,            0.,NA,NA,"",   3.83332E+06,   3.76254E+06,   3.76254E+06
C:/temp/Job-39.odb,Step-1,Increment      1: Step Time =    1.000,"P-39-1",          1135,       100.009,       183.804,            0.,NA,NA,"",   3.77574E+06,   3.79910E+06,   3.79910E+06
C:/temp/Job-39.odb,Step-1,Increment      1: Step Time =    1.000,"P-39-1",          1136,       183.151,       85.6382,            0.,NA,NA,"",   1.69499E+06,   903.606E+03,   903.606E+03
C:/temp/Job-39.odb,Step-1,Increment      1: Step Time =    1.000,"P-39-1",          1137,       177.617,       19.3054,            0.,NA,NA,"",   1.31749E+06,   1.26454E+06,   1.26454E+06
C:/temp/Job-39.odb,Step-1,Increment      1: Step Time =    1.000,"P-39-1",          1138,       183.643,       148.418,            0.,NA,NA,"",   2.22617E+06,   2.04193E+06,   2.04193E+06
C:/temp/Job-39.odb,Step-1,Increment      1: Step Time =    1.000,"P-39-1",          1139,       184.085,       144.613,            0.,NA,NA,"",   2.33281E+06,   2.12923E+06,   2.12923E+06
C:/temp/Job-39.odb,Step-1,Increment      1: Step Time =    1.000,"P-39-1",          1140,       155.758,       162.534,            0.,NA,NA,"",   2.99807E+06,   2.97650E+06,   2.97650E+06
C:/temp/Job-39.odb,Step-1,Increment      1: Step Time =    1.000,"P-39-1",          1141,       179.714,       57.9393,            0.,NA,NA,"",   2.57685E+06,   2.16905E+06,   2.16905E+06
C:/temp/Job-39.odb,Step-1,Increment      1: Step Time =    1.000,"P-39-1",          1142,       19.2090,       39.4411,            0.,NA,NA,"",   760.213E+03,   810.227E+03,   810.227E+03
C:/temp/Job-39.odb,Step-1,Increment      1: Step Time =    1.000,"P-39-1",          1143,       160.041,       18.2905,            0.,NA,NA,"",   1.67849E+06,   1.60063E+06,   1.60063E+06
C:/temp/Job-39.odb,Step-1,Increment      1: Step Time =    1.000,"P-39-1",          1144,       173.657,       18.0285,            0.,NA,NA,"",   1.36054E+06,   1.29795E+06,   1.29795E+06
C:/temp/Job-39.odb,Step-1,Increment      1: Step Time =    1.000,"P-39-1",          1145,       178.080,       54.8376,            0.,NA,NA,"",   2.56855E+06,   2.15721E+06,   2.15721E+06
C:/temp/Job-39.odb,Step-1,Increment      1: Step Time =    1.000,"P-39-1",          1146,       32.5974,       183.221,            0.,NA,NA,"",   3.26334E+06,   3.20683E+06,   3.20683E+06
C:/temp/Job-39.odb,Step-1,Increment      1: Step Time =    1.000,"P-39-1",          1147,       41.0631,       185.129,            0.,NA,NA,"",   3.48499E+06,   3.38907E+06,   3.38907E+06
C:/temp/Job-39.odb,Step-1,Increment      1: Step Time =    1.000,"P-39-1",          1148,       22.0509,       21.3221,            0.,NA,NA,"",   2.70676E+06,   2.74114E+06,   2.74114E+06
C:/temp/Job-39.odb,Step-1,Increment      1: Step Time =    1.000,"P-39-1",          1149,       180.567,       182.116,            0.,NA,NA,"",   1.20865E+06,   1.16422E+06,   1.16422E+06
C:/temp/Job-39.odb,Step-1,Increment      1: Step Time =    1.000,"P-39-1",          1150,       179.952,       142.738,            0.,NA,NA,"",   2.58756E+06,   2.18538E+06,   2.18538E+06
C:/temp/Job-39.odb,Step-1,Increment      1: Step Time =    1.000,"P-39-1",          1151,       183.079,       26.3639,            0.,NA,NA,"",   1.34905E+06,   1.30985E+06,   1.30985E+06
C:/temp/Job-39.odb,Step-1,Increment      1: Step Time =    1.000,"P-39-1",          1152,       180.541,       147.372,            0.,NA,NA,"",    2.4446E+06,   2.14163E+06,   2.14163E+06
C:/temp/Job-39.odb,Step-1,Increment      1: Step Time =    1.000,"P-39-1",          1153,       169.028,       154.038,            0.,NA,NA,"",   2.60326E+06,   2.31774E+06,   2.31774E+06
C:/temp/Job-39.odb,Step-1,Increment      1: Step Time =    1.000,"P-39-1",          1154,       13.6391,       78.6716,            0.,NA,NA,"",   634.477E+03,  -684.098E+03,  -684.098E+03
C:/temp/Job-39.odb,Step-1,Increment      1: Step Time =    1.000,"P-39-1",          1155,       183.261,       73.3643,            0.,NA,NA,"",   2.39985E+06,   2.05455E+06,   2.05455E+06
C:/temp/Job-39.odb,Step-1,Increment      1: Step Time =    1.000,"P-39-1",          1156,       181.765,       66.6258,            0.,NA,NA,"",   2.57583E+06,   2.11019E+06,   2.11019E+06
C:/temp/Job-39.odb,Step-1,Increment      1: Step Time =    1.000,"P-39-1",          1157,       128.298,       186.566,            0.,NA,NA,"",   1.51602E+06,   1.61838E+06,   1.61838E+06
C:/temp/Job-39.odb,Step-1,Increment      1: Step Time =    1.000,"P-39-1",          1158,       176.484,       59.7281,            0.,NA,NA,"",   2.62886E+06,   2.07172E+06,   2.07172E+06
C:/temp/Job-39.odb,Step-1,Increment      1: Step Time =    1.000,"P-39-1",          1159,       178.559,       63.3474,            0.,NA,NA,"",   2.60567E+06,   2.04100E+06,   2.04100E+06
C:/temp/Job-39.odb,Step-1,Increment      1: Step Time =    1.000,"P-39-1",          1160,       98.6445,       13.7778,            0.,NA,NA,"",   3.19351E+06,   3.14338E+06,   3.14338E+06
C:/temp/Job-39.odb,Step-1,Increment      1: Step Time =    1.000,"P-39-1",          1161,       13.3731,       171.346,            0.,NA,NA,"",   1.78041E+06,   1.90990E+06,   1.90990E+06
C:/temp/Job-39.odb,Step-1,Increment      1: Step Time =    1.000,"P-39-1",          1162,       72.5828,       15.1767,            0.,NA,NA,"",   3.70877E+06,   3.39141E+06,   3.39141E+06
C:/temp/Job-39.odb,Step-1,Increment      1: Step Time =    1.000,"P-39-1",          1163,       61.9838,       22.0480,            0.,NA,NA,"",   3.22748E+06,   2.81718E+06,   2.81718E+06
C:/temp/Job-39.odb,Step-1,Increment      1: Step Time =    1.000,"P-39-1",          1164,       46.6531,       29.5887,            0.,NA,NA,"",   2.05690E+06,   1.67929E+06,   1.67929E+06
C:/temp/Job-39.odb,Step-1,Increment      1: Step Time =    1.000,"P-39-1",          1165,       27.9906,       177.839,            0.,NA,NA,"",   2.60565E+06,   2.57293E+06,   2.57293E+06
C:/temp/Job-39.odb,Step-1,Increment      1: Step Time =    1.000,"P-39-1",          1166,       177.701,       154.591,            0.,NA,NA,"",   2.32575E+06,   2.07540E+06,   2.07540E+06
C:/temp/Job-39.odb,Step-1,Increment      1: Step Time =    1.000,"P-39-1",          1167,       153.450,       28.5168,            0.,NA,NA,"",   2.69201E+06,   2.68241E+06,   2.68241E+06
C:/temp/Job-39.odb,Step-1,Increment      1: Step Time =    1.000,"P-39-1",          1168,       151.490,       175.888,            0.,NA,NA,"",   2.49782E+06,   2.49844E+06,   2.49844E+06
C:/temp/Job-39.odb,Step-1,Increment      1: Step Time =    1.000,"P-39-1",          1169,       178.063,       146.034,            0.,NA,NA,"",   2.58517E+06,   2.17583E+06,   2.17583E+06
C:/temp/Job-39.odb,Step-1,Increment      1: Step Time =    1.000,"P-39-1",          1170,       132.954,       184.132,            0.,NA,NA,"",   1.95695E+06,   2.05853E+06,   2.05853E+06
C:/temp/Job-39.odb,Step-1,Increment      1: Step Time =    1.000,"P-39-1",          1171,       136.494,       183.292,            0.,NA,NA,"",   2.02751E+06,   2.10217E+06,   2.10217E+06
C:/temp/Job-39.odb,Step-1,Increment      1: Step Time =    1.000,"P-39-1",          1172,       174.764,       24.6339,            0.,NA,NA,"",   1.59722E+06,   1.52295E+06,   1.52295E+06
C:/temp/Job-39.odb,Step-1,Increment      1: Step Time =    1.000,"P-39-1",          1173,       69.6263,       182.733,            0.,NA,NA,"",   3.69084E+06,   3.33613E+06,   3.33613E+06
C:/temp/Job-39.odb,Step-1,Increment      1: Step Time =    1.000,"P-39-1",          1174,       33.0937,       42.6263,            0.,NA,NA,"",   699.824E+03,  -147.155E+03,  -147.155E+03
C:/temp/Job-39.odb,Step-1,Increment      1: Step Time =    1.000,"P-39-1",          1175,       41.7890,       167.017,            0.,NA,NA,"",   1.61511E+06,   1.26094E+06,   1.26094E+06
C:/temp/Job-39.odb,Step-1,Increment      1: Step Time =    1.000,"P-39-1",          1176,       19.9678,       129.199,            0.,NA,NA,"",   858.050E+03,  -877.388E+03,  -877.388E+03
C:/temp/Job-39.odb,Step-1,Increment      1: Step Time =    1.000,"P-39-1",          1177,       126.236,       16.0317,            0.,NA,NA,"",   2.32953E+06,   2.47715E+06,   2.47715E+06
C:/temp/Job-39.odb,Step-1,Increment      1: Step Time =    1.000,"P-39-1",          1178,       136.736,       22.9676,            0.,NA,NA,"",   3.24978E+06,   3.39422E+06,   3.39422E+06
C:/temp/Job-39.odb,Step-1,Increment      1: Step Time =    1.000,"P-39-1",          1179,       170.906,       21.2265,            0.,NA,NA,"",   1.58202E+06,   1.50467E+06,   1.50467E+06
C:/temp/Job-39.odb,Step-1,Increment      1: Step Time =    1.000,"P-39-1",          1180,       23.7939,       25.0447,            0.,NA,NA,"",   2.22881E+06,   2.24060E+06,   2.24060E+06
C:/temp/Job-39.odb,Step-1,Increment      1: Step Time =    1.000,"P-39-1",          1181,       29.0293,       23.6980,            0.,NA,NA,"",   2.45383E+06,   2.41304E+06,   2.41304E+06
C:/temp/Job-39.odb,Step-1,Increment      1: Step Time =    1.000,"P-39-1",          1182,       159.817,       181.241,            0.,NA,NA,"",   1.73155E+06,   1.65538E+06,   1.65538E+06
C:/temp/Job-39.odb,Step-1,Increment      1: Step Time =    1.000,"P-39-1",          1183,       168.155,       181.062,            0.,NA,NA,"",   1.52579E+06,   1.44476E+06,   1.44476E+06
C:/temp/Job-39.odb,Step-1,Increment      1: Step Time =    1.000,"P-39-1",          1184,       147.869,       177.951,            0.,NA,NA,"",   2.41653E+06,   2.42875E+06,   2.42875E+06
C:/temp/Job-39.odb,Step-1,Increment      1: Step Time =    1.000,"P-39-1",          1185,       57.4558,       182.666,            0.,NA,NA,"",   3.42819E+06,   3.16237E+06,   3.16237E+06
C:/temp/Job-39.odb,Step-1,Increment      1: Step Time =    1.000,"P-39-1",          1186,       140.542,       23.6106,            0.,NA,NA,"",   3.08327E+06,   3.19512E+06,   3.19512E+06
C:/temp/Job-39.odb,Step-1,Increment      1: Step Time =    1.000,"P-39-1",          1187,       167.785,       168.365,            0.,NA,NA,"",   2.21487E+06,   2.09124E+06,   2.09124E+06
C:/temp/Job-39.odb,Step-1,Increment      1: Step Time =    1.000,"P-39-1",          1188,       15.8144,       144.468,            0.,NA,NA,"",   439.732E+03,  -358.421E+03,  -358.421E+03
C:/temp/Job-39.odb,Step-1,Increment      1: Step Time =    1.000,"P-39-1",          1189,       15.0260,       150.340,            0.,NA,NA,"",   244.072E+03,   205.788E+03,   205.788E+03
C:/temp/Job-39.odb,Step-1,Increment      1: Step Time =    1.000,"P-39-1",          1190,       64.1274,       17.3923,            0.,NA,NA,"",   3.55374E+06,   3.21557E+06,   3.21557E+06
C:/temp/Job-39.odb,Step-1,Increment      1: Step Time =    1.000,"P-39-1",          1191,       144.758,       179.592,            0.,NA,NA,"",   2.34792E+06,   2.37570E+06,   2.37570E+06
C:/temp/Job-39.odb,Step-1,Increment      1: Step Time =    1.000,"P-39-1",          1192,       162.779,       174.320,            0.,NA,NA,"",   2.12607E+06,   2.03875E+06,   2.03875E+06
C:/temp/Job-39.odb,Step-1,Increment      1: Step Time =    1.000,"P-39-1",          1193,       26.7609,       25.9189,            0.,NA,NA,"",   2.15527E+06,   2.13043E+06,   2.13043E+06
C:/temp/Job-39.odb,Step-1,Increment      1: Step Time =    1.000,"P-39-1",          1194,       51.1641,       22.2839,            0.,NA,NA,"",   2.90855E+06,   2.59915E+06,   2.59915E+06
C:/temp/Job-39.odb,Step-1,Increment      1: Step Time =    1.000,"P-39-1",          1195,       175.236,       29.1836,            0.,NA,NA,"",   1.75048E+06,   1.66253E+06,   1.66253E+06
C:/temp/Job-39.odb,Step-1,Increment      1: Step Time =    1.000,"P-39-1",          1196,       167.381,       176.642,            0.,NA,NA,"",   1.79023E+06,   1.70036E+06,   1.70036E+06
C:/temp/Job-39.odb,Step-1,Increment      1: Step Time =    1.000,"P-39-1",          1197,       170.982,       175.945,            0.,NA,NA,"",   1.70176E+06,   1.61667E+06,   1.61667E+06
C:/temp/Job-39.odb,Step-1,Increment      1: Step Time =    1.000,"P-39-1",          1198,       34.9220,       17.0963,            0.,NA,NA,"",   3.24436E+06,   3.16870E+06,   3.16870E+06
