ODB Name,Step,Frame,Part Instance Name,    Node Label,X,Y,Z,Section Name,Material Name,Section Point,       S-Mises,S-Max. In-Plane Principal (Abs),S-Max. Principal (Abs)
C:/temp/Job-40.odb,Step-1,Increment      1: Step Time =    1.000,"P-40-1",             1,       90.2383,       121.925,            0.,NA,NA,"",   1.94205E+06,   2.00131E+06,   2.00131E+06
C:/temp/Job-40.odb,Step-1,Increment      1: Step Time =    1.000,"P-40-1",             2,       82.1645,       116.059,            0.,NA,NA,"",   817.007E+03,   803.116E+03,   803.116E+03
C:/temp/Job-40.odb,Step-1,Increment      1: Step Time =    1.000,"P-40-1",             3,       77.1746,       107.416,            0.,NA,NA,"",   466.477E+03,  -428.286E+03,  -428.286E+03
C:/temp/Job-40.odb,Step-1,Increment      1: Step Time =    1.000,"P-40-1",             4,       76.1315,       97.4913,            0.,NA,NA,"",   561.644E+03,  -561.441E+03,  -561.441E+03
C:/temp/Job-40.odb,Step-1,Increment      1: Step Time =    1.000,"P-40-1",             5,       79.2154,           88.,            0.,NA,NA,"",   525.233E+03,   117.626E+03,   117.626E+03
C:/temp/Job-40.odb,Step-1,Increment      1: Step Time =    1.000,"P-40-1",             6,       85.8932,       80.5836,            0.,NA,NA,"",   1.40205E+06,   1.43943E+06,   1.43943E+06
C:/temp/Job-40.odb,Step-1,Increment      1: Step Time =    1.000,"P-40-1",             7,       95.0101,       76.5245,            0.,NA,NA,"",   2.30507E+06,   2.39688E+06,   2.39688E+06
C:/temp/Job-40.odb,Step-1,Increment      1: Step Time =    1.000,"P-40-1",             8,       104.990,       76.5245,            0.,NA,NA,"",   2.48739E+06,   2.56430E+06,   2.56430E+06
C:/temp/Job-40.odb,Step-1,Increment      1: Step Time =    1.000,"P-40-1",             9,       114.107,       80.5836,            0.,NA,NA,"",   1.55279E+06,   1.58112E+06,   1.58112E+06
C:/temp/Job-40.odb,Step-1,Increment      1: Step Time =    1.000,"P-40-1",            10,       120.785,           88.,            0.,NA,NA,"",   605.975E+03,   120.411E+03,   120.411E+03
C:/temp/Job-40.odb,Step-1,Increment      1: Step Time =    1.000,"P-40-1",            11,       123.869,       97.4913,            0.,NA,NA,"",   689.755E+03,  -688.752E+03,  -688.752E+03
C:/temp/Job-40.odb,Step-1,Increment      1: Step Time =    1.000,"P-40-1",            12,       122.825,       107.416,            0.,NA,NA,"",   563.688E+03,  -513.971E+03,  -513.971E+03
C:/temp/Job-40.odb,Step-1,Increment      1: Step Time =    1.000,"P-40-1",            13,       117.835,       116.059,            0.,NA,NA,"",   925.368E+03,   905.548E+03,   905.548E+03
C:/temp/Job-40.odb,Step-1,Increment      1: Step Time =    1.000,"P-40-1",            14,       109.762,       121.925,            0.,NA,NA,"",   2.09218E+06,   2.16670E+06,   2.16670E+06
C:/temp/Job-40.odb,Step-1,Increment      1: Step Time =    1.000,"P-40-1",            15,          100.,          124.,            0.,NA,NA,"",   2.63103E+06,   2.71898E+06,   2.71898E+06
C:/temp/Job-40.odb,Step-1,Increment      1: Step Time =    1.000,"P-40-1",            16,          190.,            0.,            0.,NA,NA,"",   998.940E+03,   999.009E+03,   999.009E+03
C:/temp/Job-40.odb,Step-1,Increment      1: Step Time =    1.000,"P-40-1",            17,          180.,            0.,            0.,NA,NA,"",   999.150E+03,   999.186E+03,   999.186E+03
C:/temp/Job-40.odb,Step-1,Increment      1: Step Time =    1.000,"P-40-1",            18,          170.,            0.,            0.,NA,NA,"",   1.00011E+06,   999.909E+03,   999.909E+03
C:/temp/Job-40.odb,Step-1,Increment      1: Step Time =    1.000,"P-40-1",            19,          160.,            0.,            0.,NA,NA,"",   996.373E+03,   996.062E+03,   996.062E+03
C:/temp/Job-40.odb,Step-1,Increment      1: Step Time =    1.000,"P-40-1",            20,          150.,            0.,            0.,NA,NA,"",   982.773E+03,   982.410E+03,   982.410E+03
C:/temp/Job-40.odb,Step-1,Increment      1: Step Time =    1.000,"P-40-1",            21,          140.,            0.,            0.,NA,NA,"",   955.835E+03,   955.533E+03,   955.533E+03
C:/temp/Job-40.odb,Step-1,Increment      1: Step Time =    1.000,"P-40-1",            22,          130.,            0.,            0.,NA,NA,"",   919.754E+03,   919.647E+03,   919.647E+03
C:/temp/Job-40.odb,Step-1,Increment      1: Step Time =    1.000,"P-40-1",            23,          120.,            0.,            0.,NA,NA,"",   882.998E+03,   883.276E+03,   883.276E+03
C:/temp/Job-40.odb,Step-1,Increment      1: Step Time =    1.000,"P-40-1",            24,          110.,            0.,            0.,NA,NA,"",   857.602E+03,   858.358E+03,   858.358E+03
C:/temp/Job-40.odb,Step-1,Increment      1: Step Time =    1.000,"P-40-1",            25,          100.,            0.,            0.,NA,NA,"",   855.944E+03,   856.802E+03,   856.802E+03
C:/temp/Job-40.odb,Step-1,Increment      1: Step Time =    1.000,"P-40-1",            26,           90.,            0.,            0.,NA,NA,"",   881.948E+03,   882.528E+03,   882.528E+03
C:/temp/Job-40.odb,Step-1,Increment      1: Step Time =    1.000,"P-40-1",            27,           80.,            0.,            0.,NA,NA,"",   930.434E+03,   930.629E+03,   930.629E+03
C:/temp/Job-40.odb,Step-1,Increment      1: Step Time =    1.000,"P-40-1",            28,           70.,            0.,            0.,NA,NA,"",   991.405E+03,   991.464E+03,   991.464E+03
C:/temp/Job-40.odb,Step-1,Increment      1: Step Time =    1.000,"P-40-1",            29,           60.,            0.,            0.,NA,NA,"",   1.05527E+06,   1.05536E+06,   1.05536E+06
C:/temp/Job-40.odb,Step-1,Increment      1: Step Time =    1.000,"P-40-1",            30,           50.,            0.,            0.,NA,NA,"",   1.10965E+06,   1.10807E+06,   1.10807E+06
C:/temp/Job-40.odb,Step-1,Increment      1: Step Time =    1.000,"P-40-1",            31,           40.,            0.,            0.,NA,NA,"",   1.15172E+06,   1.15115E+06,   1.15115E+06
C:/temp/Job-40.odb,Step-1,Increment      1: Step Time =    1.000,"P-40-1",            32,           30.,            0.,            0.,NA,NA,"",   1.19084E+06,   1.19091E+06,   1.19091E+06
C:/temp/Job-40.odb,Step-1,Increment      1: Step Time =    1.000,"P-40-1",            33,           20.,            0.,            0.,NA,NA,"",   1.24994E+06,   1.25077E+06,   1.25077E+06
C:/temp/Job-40.odb,Step-1,Increment      1: Step Time =    1.000,"P-40-1",            34,           10.,            0.,            0.,NA,NA,"",   1.38983E+06,   1.39274E+06,   1.39274E+06
C:/temp/Job-40.odb,Step-1,Increment      1: Step Time =    1.000,"P-40-1",            35,          200.,            0.,            0.,NA,NA,"",   999.895E+03,   999.794E+03,   999.794E+03
C:/temp/Job-40.odb,Step-1,Increment      1: Step Time =    1.000,"P-40-1",            36,            0.,            0.,            0.,NA,NA,"",   1.74561E+06,   1.82903E+06,   1.82903E+06
C:/temp/Job-40.odb,Step-1,Increment      1: Step Time =    1.000,"P-40-1",            37,          200.,          190.,            0.,NA,NA,"",   1.00066E+06,   1.00021E+06,   1.00021E+06
C:/temp/Job-40.odb,Step-1,Increment      1: Step Time =    1.000,"P-40-1",            38,          200.,          180.,            0.,NA,NA,"",   1.00005E+06,   1.00062E+06,   1.00062E+06
C:/temp/Job-40.odb,Step-1,Increment      1: Step Time =    1.000,"P-40-1",            39,          200.,          170.,            0.,NA,NA,"",   995.100E+03,   1.00116E+06,   1.00116E+06
C:/temp/Job-40.odb,Step-1,Increment      1: Step Time =    1.000,"P-40-1",            40,          200.,          160.,            0.,NA,NA,"",   982.949E+03,   1.00109E+06,   1.00109E+06
C:/temp/Job-40.odb,Step-1,Increment      1: Step Time =    1.000,"P-40-1",            41,          200.,          150.,            0.,NA,NA,"",   963.095E+03,   1.00095E+06,   1.00095E+06
C:/temp/Job-40.odb,Step-1,Increment      1: Step Time =    1.000,"P-40-1",            42,          200.,          140.,            0.,NA,NA,"",   937.532E+03,   1.00098E+06,   1.00098E+06
C:/temp/Job-40.odb,Step-1,Increment      1: Step Time =    1.000,"P-40-1",            43,          200.,          130.,            0.,NA,NA,"",   911.667E+03,   1.00041E+06,   1.00041E+06
C:/temp/Job-40.odb,Step-1,Increment      1: Step Time =    1.000,"P-40-1",            44,          200.,          120.,            0.,NA,NA,"",   891.084E+03,   999.335E+03,   999.335E+03
C:/temp/Job-40.odb,Step-1,Increment      1: Step Time =    1.000,"P-40-1",            45,          200.,          110.,            0.,NA,NA,"",   878.774E+03,   998.120E+03,   998.120E+03
C:/temp/Job-40.odb,Step-1,Increment      1: Step Time =    1.000,"P-40-1",            46,          200.,          100.,            0.,NA,NA,"",   874.634E+03,   997.504E+03,   997.504E+03
C:/temp/Job-40.odb,Step-1,Increment      1: Step Time =    1.000,"P-40-1",            47,          200.,           90.,            0.,NA,NA,"",   878.501E+03,   998.266E+03,   998.266E+03
C:/temp/Job-40.odb,Step-1,Increment      1: Step Time =    1.000,"P-40-1",            48,          200.,           80.,            0.,NA,NA,"",   890.428E+03,   999.398E+03,   999.398E+03
C:/temp/Job-40.odb,Step-1,Increment      1: Step Time =    1.000,"P-40-1",            49,          200.,           70.,            0.,NA,NA,"",   910.419E+03,   999.718E+03,   999.718E+03
C:/temp/Job-40.odb,Step-1,Increment      1: Step Time =    1.000,"P-40-1",            50,          200.,           60.,            0.,NA,NA,"",   937.412E+03,   999.742E+03,   999.742E+03
C:/temp/Job-40.odb,Step-1,Increment      1: Step Time =    1.000,"P-40-1",            51,          200.,           50.,            0.,NA,NA,"",   967.119E+03,   1.00422E+06,   1.00422E+06
C:/temp/Job-40.odb,Step-1,Increment      1: Step Time =    1.000,"P-40-1",            52,          200.,           40.,            0.,NA,NA,"",   984.296E+03,   1.00115E+06,   1.00115E+06
C:/temp/Job-40.odb,Step-1,Increment      1: Step Time =    1.000,"P-40-1",            53,          200.,           30.,            0.,NA,NA,"",   995.423E+03,   1.00065E+06,   1.00065E+06
C:/temp/Job-40.odb,Step-1,Increment      1: Step Time =    1.000,"P-40-1",            54,          200.,           20.,            0.,NA,NA,"",   1.00016E+06,   1.00044E+06,   1.00044E+06
C:/temp/Job-40.odb,Step-1,Increment      1: Step Time =    1.000,"P-40-1",            55,          200.,           10.,            0.,NA,NA,"",   1.00065E+06,   1.00016E+06,   1.00016E+06
C:/temp/Job-40.odb,Step-1,Increment      1: Step Time =    1.000,"P-40-1",            56,          200.,          200.,            0.,NA,NA,"",   999.901E+03,   999.796E+03,   999.796E+03
C:/temp/Job-40.odb,Step-1,Increment      1: Step Time =    1.000,"P-40-1",            57,           10.,          200.,            0.,NA,NA,"",   1.39098E+06,   1.39357E+06,   1.39357E+06
C:/temp/Job-40.odb,Step-1,Increment      1: Step Time =    1.000,"P-40-1",            58,           20.,          200.,            0.,NA,NA,"",   1.25189E+06,   1.25249E+06,   1.25249E+06
C:/temp/Job-40.odb,Step-1,Increment      1: Step Time =    1.000,"P-40-1",            59,           30.,          200.,            0.,NA,NA,"",   1.19315E+06,   1.19319E+06,   1.19319E+06
C:/temp/Job-40.odb,Step-1,Increment      1: Step Time =    1.000,"P-40-1",            60,           40.,          200.,            0.,NA,NA,"",   1.15191E+06,   1.15172E+06,   1.15172E+06
C:/temp/Job-40.odb,Step-1,Increment      1: Step Time =    1.000,"P-40-1",            61,           50.,          200.,            0.,NA,NA,"",   1.10759E+06,   1.10730E+06,   1.10730E+06
C:/temp/Job-40.odb,Step-1,Increment      1: Step Time =    1.000,"P-40-1",            62,           60.,          200.,            0.,NA,NA,"",   1.05432E+06,   1.05389E+06,   1.05389E+06
C:/temp/Job-40.odb,Step-1,Increment      1: Step Time =    1.000,"P-40-1",            63,           70.,          200.,            0.,NA,NA,"",   993.644E+03,   993.412E+03,   993.412E+03
C:/temp/Job-40.odb,Step-1,Increment      1: Step Time =    1.000,"P-40-1",            64,           80.,          200.,            0.,NA,NA,"",   932.472E+03,   932.670E+03,   932.670E+03
C:/temp/Job-40.odb,Step-1,Increment      1: Step Time =    1.000,"P-40-1",            65,           90.,          200.,            0.,NA,NA,"",   883.566E+03,   884.212E+03,   884.212E+03
C:/temp/Job-40.odb,Step-1,Increment      1: Step Time =    1.000,"P-40-1",            66,          100.,          200.,            0.,NA,NA,"",   857.638E+03,   858.492E+03,   858.492E+03
C:/temp/Job-40.odb,Step-1,Increment      1: Step Time =    1.000,"P-40-1",            67,          110.,          200.,            0.,NA,NA,"",   858.495E+03,   859.205E+03,   859.205E+03
C:/temp/Job-40.odb,Step-1,Increment      1: Step Time =    1.000,"P-40-1",            68,          120.,          200.,            0.,NA,NA,"",   882.423E+03,   882.767E+03,   882.767E+03
C:/temp/Job-40.odb,Step-1,Increment      1: Step Time =    1.000,"P-40-1",            69,          130.,          200.,            0.,NA,NA,"",   919.738E+03,   919.849E+03,   919.849E+03
C:/temp/Job-40.odb,Step-1,Increment      1: Step Time =    1.000,"P-40-1",            70,          140.,          200.,            0.,NA,NA,"",   958.969E+03,   958.767E+03,   958.767E+03
C:/temp/Job-40.odb,Step-1,Increment      1: Step Time =    1.000,"P-40-1",            71,          150.,          200.,            0.,NA,NA,"",   985.745E+03,   984.648E+03,   984.648E+03
C:/temp/Job-40.odb,Step-1,Increment      1: Step Time =    1.000,"P-40-1",            72,          160.,          200.,            0.,NA,NA,"",   997.517E+03,   997.268E+03,   997.268E+03
C:/temp/Job-40.odb,Step-1,Increment      1: Step Time =    1.000,"P-40-1",            73,          170.,          200.,            0.,NA,NA,"",   1.00013E+06,   1.00004E+06,   1.00004E+06
C:/temp/Job-40.odb,Step-1,Increment      1: Step Time =    1.000,"P-40-1",            74,          180.,          200.,            0.,NA,NA,"",   998.981E+03,   999.032E+03,   999.032E+03
C:/temp/Job-40.odb,Step-1,Increment      1: Step Time =    1.000,"P-40-1",            75,          190.,          200.,            0.,NA,NA,"",   998.917E+03,   998.976E+03,   998.976E+03
C:/temp/Job-40.odb,Step-1,Increment      1: Step Time =    1.000,"P-40-1",            76,            0.,          200.,            0.,NA,NA,"",   1.74378E+06,   1.82883E+06,   1.82883E+06
C:/temp/Job-40.odb,Step-1,Increment      1: Step Time =    1.000,"P-40-1",            77,            0.,           10.,            0.,NA,NA,"",   1.26204E+06,   1.37582E+06,   1.37582E+06
C:/temp/Job-40.odb,Step-1,Increment      1: Step Time =    1.000,"P-40-1",            78,            0.,           20.,            0.,NA,NA,"",   1.08402E+06,   1.19937E+06,   1.19937E+06
C:/temp/Job-40.odb,Step-1,Increment      1: Step Time =    1.000,"P-40-1",            79,            0.,           30.,            0.,NA,NA,"",   986.304E+03,   1.09939E+06,   1.09939E+06
C:/temp/Job-40.odb,Step-1,Increment      1: Step Time =    1.000,"P-40-1",            80,            0.,           40.,            0.,NA,NA,"",   913.457E+03,   1.02282E+06,   1.02282E+06
C:/temp/Job-40.odb,Step-1,Increment      1: Step Time =    1.000,"P-40-1",            81,            0.,           50.,            0.,NA,NA,"",   851.433E+03,   956.181E+03,   956.181E+03
C:/temp/Job-40.odb,Step-1,Increment      1: Step Time =    1.000,"P-40-1",            82,            0.,           60.,            0.,NA,NA,"",   789.673E+03,   889.214E+03,   889.214E+03
C:/temp/Job-40.odb,Step-1,Increment      1: Step Time =    1.000,"P-40-1",            83,            0.,           70.,            0.,NA,NA,"",   732.619E+03,   826.351E+03,   826.351E+03
C:/temp/Job-40.odb,Step-1,Increment      1: Step Time =    1.000,"P-40-1",            84,            0.,           80.,            0.,NA,NA,"",   682.466E+03,   771.156E+03,   771.156E+03
C:/temp/Job-40.odb,Step-1,Increment      1: Step Time =    1.000,"P-40-1",            85,            0.,           90.,            0.,NA,NA,"",   647.397E+03,   732.788E+03,   732.788E+03
C:/temp/Job-40.odb,Step-1,Increment      1: Step Time =    1.000,"P-40-1",            86,            0.,          100.,            0.,NA,NA,"",   634.740E+03,   718.979E+03,   718.979E+03
C:/temp/Job-40.odb,Step-1,Increment      1: Step Time =    1.000,"P-40-1",            87,            0.,          110.,            0.,NA,NA,"",   648.280E+03,   733.720E+03,   733.720E+03
C:/temp/Job-40.odb,Step-1,Increment      1: Step Time =    1.000,"P-40-1",            88,            0.,          120.,            0.,NA,NA,"",   683.755E+03,   772.515E+03,   772.515E+03
C:/temp/Job-40.odb,Step-1,Increment      1: Step Time =    1.000,"P-40-1",            89,            0.,          130.,            0.,NA,NA,"",   734.165E+03,   827.760E+03,   827.760E+03
C:/temp/Job-40.odb,Step-1,Increment      1: Step Time =    1.000,"P-40-1",            90,            0.,          140.,            0.,NA,NA,"",   794.876E+03,   893.229E+03,   893.229E+03
C:/temp/Job-40.odb,Step-1,Increment      1: Step Time =    1.000,"P-40-1",            91,            0.,          150.,            0.,NA,NA,"",   855.255E+03,   960.220E+03,   960.220E+03
C:/temp/Job-40.odb,Step-1,Increment      1: Step Time =    1.000,"P-40-1",            92,            0.,          160.,            0.,NA,NA,"",   914.898E+03,   1.02551E+06,   1.02551E+06
C:/temp/Job-40.odb,Step-1,Increment      1: Step Time =    1.000,"P-40-1",            93,            0.,          170.,            0.,NA,NA,"",   985.218E+03,   1.09900E+06,   1.09900E+06
C:/temp/Job-40.odb,Step-1,Increment      1: Step Time =    1.000,"P-40-1",            94,            0.,          180.,            0.,NA,NA,"",   1.08266E+06,   1.19860E+06,   1.19860E+06
C:/temp/Job-40.odb,Step-1,Increment      1: Step Time =    1.000,"P-40-1",            95,            0.,          190.,            0.,NA,NA,"",   1.26100E+06,   1.37554E+06,   1.37554E+06
C:/temp/Job-40.odb,Step-1,Increment      1: Step Time =    1.000,"P-40-1",            96,       190.504,       75.7405,            0.,NA,NA,"",   918.028E+03,   998.934E+03,   998.934E+03
C:/temp/Job-40.odb,Step-1,Increment      1: Step Time =    1.000,"P-40-1",            97,       190.319,       124.678,            0.,NA,NA,"",   920.503E+03,   999.694E+03,   999.694E+03
C:/temp/Job-40.odb,Step-1,Increment      1: Step Time =    1.000,"P-40-1",            98,       180.489,       124.416,            0.,NA,NA,"",   946.149E+03,   995.335E+03,   995.335E+03
C:/temp/Job-40.odb,Step-1,Increment      1: Step Time =    1.000,"P-40-1",            99,       169.890,       124.617,            0.,NA,NA,"",   979.815E+03,   991.991E+03,   991.991E+03
C:/temp/Job-40.odb,Step-1,Increment      1: Step Time =    1.000,"P-40-1",           100,       155.565,       126.588,            0.,NA,NA,"",   1.08579E+06,   1.02938E+06,   1.02938E+06
C:/temp/Job-40.odb,Step-1,Increment      1: Step Time =    1.000,"P-40-1",           101,       146.423,       124.377,            0.,NA,NA,"",   1.14783E+06,   1.03686E+06,   1.03686E+06
C:/temp/Job-40.odb,Step-1,Increment      1: Step Time =    1.000,"P-40-1",           102,       136.697,       126.979,            0.,NA,NA,"",   1.34310E+06,   1.18226E+06,   1.18226E+06
C:/temp/Job-40.odb,Step-1,Increment      1: Step Time =    1.000,"P-40-1",           103,       129.616,       125.695,            0.,NA,NA,"",   1.42991E+06,   1.26014E+06,   1.26014E+06
C:/temp/Job-40.odb,Step-1,Increment      1: Step Time =    1.000,"P-40-1",           104,       114.848,       126.181,            0.,NA,NA,"",   1.74497E+06,   1.78657E+06,   1.78657E+06
C:/temp/Job-40.odb,Step-1,Increment      1: Step Time =    1.000,"P-40-1",           105,       86.4540,       125.730,            0.,NA,NA,"",   1.76798E+06,   1.80854E+06,   1.80854E+06
C:/temp/Job-40.odb,Step-1,Increment      1: Step Time =    1.000,"P-40-1",           106,       62.4646,       126.086,            0.,NA,NA,"",   1.17059E+06,   1.06125E+06,   1.06125E+06
C:/temp/Job-40.odb,Step-1,Increment      1: Step Time =    1.000,"P-40-1",           107,       52.5469,       130.194,            0.,NA,NA,"",   1.06137E+06,   1.01579E+06,   1.01579E+06
C:/temp/Job-40.odb,Step-1,Increment      1: Step Time =    1.000,"P-40-1",           108,       42.9430,       127.105,            0.,NA,NA,"",   894.050E+03,   902.235E+03,   902.235E+03
C:/temp/Job-40.odb,Step-1,Increment      1: Step Time =    1.000,"P-40-1",           109,       31.3583,       123.997,            0.,NA,NA,"",   769.740E+03,   824.399E+03,   824.399E+03
C:/temp/Job-40.odb,Step-1,Increment      1: Step Time =    1.000,"P-40-1",           110,       19.4321,       124.666,            0.,NA,NA,"",   738.505E+03,   814.997E+03,   814.997E+03
C:/temp/Job-40.odb,Step-1,Increment      1: Step Time =    1.000,"P-40-1",           111,       9.59789,       124.656,            0.,NA,NA,"",   716.064E+03,   803.003E+03,   803.003E+03
C:/temp/Job-40.odb,Step-1,Increment      1: Step Time =    1.000,"P-40-1",           112,       9.83920,       115.055,            0.,NA,NA,"",   662.643E+03,   748.376E+03,   748.376E+03
C:/temp/Job-40.odb,Step-1,Increment      1: Step Time =    1.000,"P-40-1",           113,       20.0655,       115.369,            0.,NA,NA,"",   666.451E+03,   745.869E+03,   745.869E+03
C:/temp/Job-40.odb,Step-1,Increment      1: Step Time =    1.000,"P-40-1",           114,       31.0174,       116.244,            0.,NA,NA,"",   686.670E+03,    751.14E+03,    751.14E+03
C:/temp/Job-40.odb,Step-1,Increment      1: Step Time =    1.000,"P-40-1",           115,       38.8456,       116.123,            0.,NA,NA,"",   690.880E+03,   737.896E+03,   737.896E+03
C:/temp/Job-40.odb,Step-1,Increment      1: Step Time =    1.000,"P-40-1",           116,       49.1126,       116.618,            0.,NA,NA,"",   745.051E+03,   746.723E+03,   746.723E+03
C:/temp/Job-40.odb,Step-1,Increment      1: Step Time =    1.000,"P-40-1",           117,       64.8914,       115.106,            0.,NA,NA,"",   845.837E+03,   709.057E+03,   709.057E+03
C:/temp/Job-40.odb,Step-1,Increment      1: Step Time =    1.000,"P-40-1",           118,       75.8634,       114.260,            0.,NA,NA,"",   662.078E+03,   393.969E+03,   393.969E+03
C:/temp/Job-40.odb,Step-1,Increment      1: Step Time =    1.000,"P-40-1",           119,       124.229,       114.559,            0.,NA,NA,"",   789.281E+03,   466.035E+03,   466.035E+03
C:/temp/Job-40.odb,Step-1,Increment      1: Step Time =    1.000,"P-40-1",           120,       135.279,       115.557,            0.,NA,NA,"",   1.02536E+06,   827.477E+03,   827.477E+03
C:/temp/Job-40.odb,Step-1,Increment      1: Step Time =    1.000,"P-40-1",           121,       149.658,       118.129,            0.,NA,NA,"",   978.563E+03,   908.100E+03,   908.100E+03
C:/temp/Job-40.odb,Step-1,Increment      1: Step Time =    1.000,"P-40-1",           122,       159.758,       113.361,            0.,NA,NA,"",   846.845E+03,   851.398E+03,   851.398E+03
C:/temp/Job-40.odb,Step-1,Increment      1: Step Time =    1.000,"P-40-1",           123,       169.852,       114.210,            0.,NA,NA,"",   883.674E+03,   918.848E+03,   918.848E+03
C:/temp/Job-40.odb,Step-1,Increment      1: Step Time =    1.000,"P-40-1",           124,       179.818,       114.388,            0.,NA,NA,"",   896.297E+03,   959.430E+03,   959.430E+03
C:/temp/Job-40.odb,Step-1,Increment      1: Step Time =    1.000,"P-40-1",           125,       190.034,       114.728,            0.,NA,NA,"",   896.007E+03,   989.076E+03,   989.076E+03
C:/temp/Job-40.odb,Step-1,Increment      1: Step Time =    1.000,"P-40-1",           126,       128.378,       105.355,            0.,NA,NA,"",   652.814E+03,  -557.336E+03,  -557.336E+03
C:/temp/Job-40.odb,Step-1,Increment      1: Step Time =    1.000,"P-40-1",           127,       138.586,       107.308,            0.,NA,NA,"",   582.608E+03,   474.012E+03,   474.012E+03
C:/temp/Job-40.odb,Step-1,Increment      1: Step Time =    1.000,"P-40-1",           128,       148.888,       105.668,            0.,NA,NA,"",   628.730E+03,   625.152E+03,   625.152E+03
C:/temp/Job-40.odb,Step-1,Increment      1: Step Time =    1.000,"P-40-1",           129,       161.277,       106.253,            0.,NA,NA,"",   760.223E+03,   791.416E+03,   791.416E+03
C:/temp/Job-40.odb,Step-1,Increment      1: Step Time =    1.000,"P-40-1",           130,       168.294,       104.046,            0.,NA,NA,"",   799.334E+03,   846.903E+03,   846.903E+03
C:/temp/Job-40.odb,Step-1,Increment      1: Step Time =    1.000,"P-40-1",           131,       179.707,       104.128,            0.,NA,NA,"",   858.365E+03,   931.629E+03,   931.629E+03
C:/temp/Job-40.odb,Step-1,Increment      1: Step Time =    1.000,"P-40-1",           132,       190.032,       104.825,            0.,NA,NA,"",   879.670E+03,   980.395E+03,   980.395E+03
C:/temp/Job-40.odb,Step-1,Increment      1: Step Time =    1.000,"P-40-1",           133,       129.372,       94.7824,            0.,NA,NA,"",   562.442E+03,  -288.045E+03,  -288.045E+03
C:/temp/Job-40.odb,Step-1,Increment      1: Step Time =    1.000,"P-40-1",           134,       136.191,       95.7861,            0.,NA,NA,"",   441.082E+03,   200.487E+03,   200.487E+03
C:/temp/Job-40.odb,Step-1,Increment      1: Step Time =    1.000,"P-40-1",           135,       150.307,       97.0971,            0.,NA,NA,"",   592.672E+03,   604.004E+03,   604.004E+03
C:/temp/Job-40.odb,Step-1,Increment      1: Step Time =    1.000,"P-40-1",           136,       160.814,       96.8025,            0.,NA,NA,"",   725.299E+03,   761.211E+03,   761.211E+03
C:/temp/Job-40.odb,Step-1,Increment      1: Step Time =    1.000,"P-40-1",           137,       167.798,       92.9593,            0.,NA,NA,"",   807.342E+03,   850.660E+03,   850.660E+03
C:/temp/Job-40.odb,Step-1,Increment      1: Step Time =    1.000,"P-40-1",           138,       180.242,       94.6819,            0.,NA,NA,"",   861.718E+03,   935.722E+03,   935.722E+03
C:/temp/Job-40.odb,Step-1,Increment      1: Step Time =    1.000,"P-40-1",           139,       190.199,       94.9751,            0.,NA,NA,"",   879.487E+03,   980.703E+03,   980.703E+03
C:/temp/Job-40.odb,Step-1,Increment      1: Step Time =    1.000,"P-40-1",           140,       126.509,       85.0298,            0.,NA,NA,"",   908.219E+03,   566.174E+03,   566.174E+03
C:/temp/Job-40.odb,Step-1,Increment      1: Step Time =    1.000,"P-40-1",           141,       135.273,       81.9484,            0.,NA,NA,"",   1.12439E+06,   924.318E+03,   924.318E+03
C:/temp/Job-40.odb,Step-1,Increment      1: Step Time =    1.000,"P-40-1",           142,       149.970,       83.2842,            0.,NA,NA,"",   937.456E+03,   876.297E+03,   876.297E+03
C:/temp/Job-40.odb,Step-1,Increment      1: Step Time =    1.000,"P-40-1",           143,       158.532,       83.6878,            0.,NA,NA,"",   904.680E+03,   891.695E+03,   891.695E+03
C:/temp/Job-40.odb,Step-1,Increment      1: Step Time =    1.000,"P-40-1",           144,       169.856,       83.6286,            0.,NA,NA,"",   902.987E+03,   933.034E+03,   933.034E+03
C:/temp/Job-40.odb,Step-1,Increment      1: Step Time =    1.000,"P-40-1",           145,       180.215,       85.2271,            0.,NA,NA,"",   899.477E+03,   963.465E+03,   963.465E+03
C:/temp/Job-40.odb,Step-1,Increment      1: Step Time =    1.000,"P-40-1",           146,       190.381,       85.2554,            0.,NA,NA,"",   895.479E+03,   989.772E+03,   989.772E+03
C:/temp/Job-40.odb,Step-1,Increment      1: Step Time =    1.000,"P-40-1",           147,       9.32720,       75.2591,            0.,NA,NA,"",   715.643E+03,   802.763E+03,   802.763E+03
C:/temp/Job-40.odb,Step-1,Increment      1: Step Time =    1.000,"P-40-1",           148,       18.7823,       74.4871,            0.,NA,NA,"",   741.765E+03,   818.982E+03,   818.982E+03
C:/temp/Job-40.odb,Step-1,Increment      1: Step Time =    1.000,"P-40-1",           149,       29.3128,       73.0479,            0.,NA,NA,"",   796.471E+03,   852.388E+03,   852.388E+03
C:/temp/Job-40.odb,Step-1,Increment      1: Step Time =    1.000,"P-40-1",           150,       41.5730,       74.5198,            0.,NA,NA,"",   853.766E+03,   871.224E+03,   871.224E+03
C:/temp/Job-40.odb,Step-1,Increment      1: Step Time =    1.000,"P-40-1",           151,       51.5130,       71.2051,            0.,NA,NA,"",   1.02917E+06,   987.550E+03,   987.550E+03
C:/temp/Job-40.odb,Step-1,Increment      1: Step Time =    1.000,"P-40-1",           152,       64.7747,       71.0925,            0.,NA,NA,"",   1.26430E+06,   1.15600E+06,   1.15600E+06
C:/temp/Job-40.odb,Step-1,Increment      1: Step Time =    1.000,"P-40-1",           153,       74.1485,       72.2671,            0.,NA,NA,"",   1.40716E+06,   1.29997E+06,   1.29997E+06
C:/temp/Job-40.odb,Step-1,Increment      1: Step Time =    1.000,"P-40-1",           154,       86.4720,       71.9272,            0.,NA,NA,"",   1.71557E+06,   1.76836E+06,   1.76836E+06
C:/temp/Job-40.odb,Step-1,Increment      1: Step Time =    1.000,"P-40-1",           155,       116.143,       74.6949,            0.,NA,NA,"",   1.65973E+06,   1.68303E+06,   1.68303E+06
C:/temp/Job-40.odb,Step-1,Increment      1: Step Time =    1.000,"P-40-1",           156,       137.228,       72.8019,            0.,NA,NA,"",   1.33509E+06,   1.17912E+06,   1.17912E+06
C:/temp/Job-40.odb,Step-1,Increment      1: Step Time =    1.000,"P-40-1",           157,       146.470,       73.6334,            0.,NA,NA,"",   1.18376E+06,   1.07363E+06,   1.07363E+06
C:/temp/Job-40.odb,Step-1,Increment      1: Step Time =    1.000,"P-40-1",           158,       166.041,       73.9363,            0.,NA,NA,"",   1.01065E+06,   1.00372E+06,   1.00372E+06
C:/temp/Job-40.odb,Step-1,Increment      1: Step Time =    1.000,"P-40-1",           159,       180.866,       76.0016,            0.,NA,NA,"",   942.964E+03,   993.921E+03,   993.921E+03
C:/temp/Job-40.odb,Step-1,Increment      1: Step Time =    1.000,"P-40-1",           160,       73.9737,       84.6840,            0.,NA,NA,"",   789.218E+03,   517.830E+03,   517.830E+03
C:/temp/Job-40.odb,Step-1,Increment      1: Step Time =    1.000,"P-40-1",           161,       62.6187,       84.8816,            0.,NA,NA,"",   815.774E+03,   707.491E+03,   707.491E+03
C:/temp/Job-40.odb,Step-1,Increment      1: Step Time =    1.000,"P-40-1",           162,       52.9331,       83.6028,            0.,NA,NA,"",   765.392E+03,   742.568E+03,   742.568E+03
C:/temp/Job-40.odb,Step-1,Increment      1: Step Time =    1.000,"P-40-1",           163,       41.6066,       81.2599,            0.,NA,NA,"",   744.463E+03,   776.072E+03,   776.072E+03
C:/temp/Job-40.odb,Step-1,Increment      1: Step Time =    1.000,"P-40-1",           164,       31.9127,       80.9681,            0.,NA,NA,"",   711.681E+03,   771.394E+03,   771.394E+03
C:/temp/Job-40.odb,Step-1,Increment      1: Step Time =    1.000,"P-40-1",           165,       19.4999,       87.9277,            0.,NA,NA,"",   642.885E+03,   723.706E+03,   723.706E+03
C:/temp/Job-40.odb,Step-1,Increment      1: Step Time =    1.000,"P-40-1",           166,       10.2044,       85.2422,            0.,NA,NA,"",   660.033E+03,   745.574E+03,   745.574E+03
C:/temp/Job-40.odb,Step-1,Increment      1: Step Time =    1.000,"P-40-1",           167,       71.7211,       94.4830,            0.,NA,NA,"",   485.992E+03,  -423.986E+03,  -423.986E+03
C:/temp/Job-40.odb,Step-1,Increment      1: Step Time =    1.000,"P-40-1",           168,       61.9939,       93.3101,            0.,NA,NA,"",   451.164E+03,   388.436E+03,   388.436E+03
C:/temp/Job-40.odb,Step-1,Increment      1: Step Time =    1.000,"P-40-1",           169,       51.1544,       93.0257,            0.,NA,NA,"",   506.587E+03,   534.737E+03,   534.737E+03
C:/temp/Job-40.odb,Step-1,Increment      1: Step Time =    1.000,"P-40-1",           170,       41.1527,       92.9278,            0.,NA,NA,"",   568.615E+03,   625.101E+03,   625.101E+03
C:/temp/Job-40.odb,Step-1,Increment      1: Step Time =    1.000,"P-40-1",           171,       30.6363,       95.0762,            0.,NA,NA,"",   591.572E+03,   664.681E+03,   664.681E+03
C:/temp/Job-40.odb,Step-1,Increment      1: Step Time =    1.000,"P-40-1",           172,       20.0080,       95.9403,            0.,NA,NA,"",   615.312E+03,   696.810E+03,   696.810E+03
C:/temp/Job-40.odb,Step-1,Increment      1: Step Time =    1.000,"P-40-1",           173,       10.0442,       95.4112,            0.,NA,NA,"",   628.462E+03,   713.326E+03,   713.326E+03
C:/temp/Job-40.odb,Step-1,Increment      1: Step Time =    1.000,"P-40-1",           174,       71.3337,       104.908,            0.,NA,NA,"",   520.019E+03,  -444.125E+03,  -444.125E+03
C:/temp/Job-40.odb,Step-1,Increment      1: Step Time =    1.000,"P-40-1",           175,       60.4149,       106.456,            0.,NA,NA,"",   431.041E+03,   399.506E+03,   399.506E+03
C:/temp/Job-40.odb,Step-1,Increment      1: Step Time =    1.000,"P-40-1",           176,       50.3714,       105.029,            0.,NA,NA,"",   474.117E+03,   511.356E+03,   511.356E+03
C:/temp/Job-40.odb,Step-1,Increment      1: Step Time =    1.000,"P-40-1",           177,       42.3024,       104.146,            0.,NA,NA,"",   523.130E+03,   581.365E+03,   581.365E+03
C:/temp/Job-40.odb,Step-1,Increment      1: Step Time =    1.000,"P-40-1",           178,       31.7961,       105.870,            0.,NA,NA,"",   590.654E+03,   662.045E+03,   662.045E+03
C:/temp/Job-40.odb,Step-1,Increment      1: Step Time =    1.000,"P-40-1",           179,       20.3957,       105.543,            0.,NA,NA,"",   618.167E+03,   699.336E+03,   699.336E+03
C:/temp/Job-40.odb,Step-1,Increment      1: Step Time =    1.000,"P-40-1",           180,       10.0049,       105.258,            0.,NA,NA,"",   630.397E+03,   715.319E+03,   715.319E+03
C:/temp/Job-40.odb,Step-1,Increment      1: Step Time =    1.000,"P-40-1",           181,       189.977,       10.1815,            0.,NA,NA,"",   1.00105E+06,   1.00167E+06,   1.00167E+06
C:/temp/Job-40.odb,Step-1,Increment      1: Step Time =    1.000,"P-40-1",           182,       179.749,       10.4827,            0.,NA,NA,"",   1.00569E+06,   1.00591E+06,   1.00591E+06
C:/temp/Job-40.odb,Step-1,Increment      1: Step Time =    1.000,"P-40-1",           183,       169.676,       10.4825,            0.,NA,NA,"",   1.01160E+06,   1.01031E+06,   1.01031E+06
C:/temp/Job-40.odb,Step-1,Increment      1: Step Time =    1.000,"P-40-1",           184,       158.890,       11.2390,            0.,NA,NA,"",   1.01739E+06,   1.01394E+06,   1.01394E+06
C:/temp/Job-40.odb,Step-1,Increment      1: Step Time =    1.000,"P-40-1",           185,       148.947,       9.22218,            0.,NA,NA,"",   1.00491E+06,   1.00190E+06,   1.00190E+06
C:/temp/Job-40.odb,Step-1,Increment      1: Step Time =    1.000,"P-40-1",           186,       134.656,       9.48978,            0.,NA,NA,"",   981.835E+03,   980.012E+03,   980.012E+03
C:/temp/Job-40.odb,Step-1,Increment      1: Step Time =    1.000,"P-40-1",           187,       124.780,       9.80384,            0.,NA,NA,"",   959.824E+03,   960.603E+03,   960.603E+03
C:/temp/Job-40.odb,Step-1,Increment      1: Step Time =    1.000,"P-40-1",           188,       115.034,       9.86799,            0.,NA,NA,"",   938.634E+03,   942.954E+03,   942.954E+03
C:/temp/Job-40.odb,Step-1,Increment      1: Step Time =    1.000,"P-40-1",           189,       105.153,       9.81842,            0.,NA,NA,"",    928.69E+03,   935.479E+03,   935.479E+03
C:/temp/Job-40.odb,Step-1,Increment      1: Step Time =    1.000,"P-40-1",           190,       95.2251,       9.79012,            0.,NA,NA,"",   940.340E+03,   946.490E+03,   946.490E+03
C:/temp/Job-40.odb,Step-1,Increment      1: Step Time =    1.000,"P-40-1",           191,       85.3202,       9.65941,            0.,NA,NA,"",   971.121E+03,   974.604E+03,   974.604E+03
C:/temp/Job-40.odb,Step-1,Increment      1: Step Time =    1.000,"P-40-1",           192,       75.7196,       9.51043,            0.,NA,NA,"",   1.01314E+06,   1.01336E+06,   1.01336E+06
C:/temp/Job-40.odb,Step-1,Increment      1: Step Time =    1.000,"P-40-1",           193,       66.4294,       10.0115,            0.,NA,NA,"",   1.06140E+06,   1.05930E+06,   1.05930E+06
C:/temp/Job-40.odb,Step-1,Increment      1: Step Time =    1.000,"P-40-1",           194,       51.7826,       11.5296,            0.,NA,NA,"",   1.13117E+06,   1.12683E+06,   1.12683E+06
C:/temp/Job-40.odb,Step-1,Increment      1: Step Time =    1.000,"P-40-1",           195,       39.4370,       9.31853,            0.,NA,NA,"",   1.16814E+06,   1.16726E+06,   1.16726E+06
C:/temp/Job-40.odb,Step-1,Increment      1: Step Time =    1.000,"P-40-1",           196,       30.3508,       8.70706,            0.,NA,NA,"",   1.20554E+06,   1.20785E+06,   1.20785E+06
C:/temp/Job-40.odb,Step-1,Increment      1: Step Time =    1.000,"P-40-1",           197,       20.8107,       10.1271,            0.,NA,NA,"",   1.25496E+06,   1.26780E+06,   1.26780E+06
C:/temp/Job-40.odb,Step-1,Increment      1: Step Time =    1.000,"P-40-1",           198,       10.3484,       10.0946,            0.,NA,NA,"",   1.33557E+06,   1.37944E+06,   1.37944E+06
C:/temp/Job-40.odb,Step-1,Increment      1: Step Time =    1.000,"P-40-1",           199,       190.793,       24.6939,            0.,NA,NA,"",   1.00084E+06,   1.00527E+06,   1.00527E+06
C:/temp/Job-40.odb,Step-1,Increment      1: Step Time =    1.000,"P-40-1",           200,       179.776,       21.9208,            0.,NA,NA,"",   1.01590E+06,   1.01688E+06,   1.01688E+06
C:/temp/Job-40.odb,Step-1,Increment      1: Step Time =    1.000,"P-40-1",           201,       169.338,       20.9414,            0.,NA,NA,"",   1.03515E+06,   1.03049E+06,   1.03049E+06
C:/temp/Job-40.odb,Step-1,Increment      1: Step Time =    1.000,"P-40-1",           202,       159.741,       25.6408,            0.,NA,NA,"",   1.07048E+06,   1.05749E+06,   1.05749E+06
C:/temp/Job-40.odb,Step-1,Increment      1: Step Time =    1.000,"P-40-1",           203,       144.031,       18.7482,            0.,NA,NA,"",   1.05134E+06,   1.04181E+06,   1.04181E+06
C:/temp/Job-40.odb,Step-1,Increment      1: Step Time =    1.000,"P-40-1",           204,       134.536,       19.1051,            0.,NA,NA,"",   1.04804E+06,   1.04200E+06,   1.04200E+06
C:/temp/Job-40.odb,Step-1,Increment      1: Step Time =    1.000,"P-40-1",           205,       124.592,       20.1162,            0.,NA,NA,"",   1.03661E+06,   1.03977E+06,   1.03977E+06
C:/temp/Job-40.odb,Step-1,Increment      1: Step Time =    1.000,"P-40-1",           206,       114.681,       20.1141,            0.,NA,NA,"",   1.01296E+06,   1.02768E+06,   1.02768E+06
C:/temp/Job-40.odb,Step-1,Increment      1: Step Time =    1.000,"P-40-1",           207,       105.202,       19.4655,            0.,NA,NA,"",   996.908E+03,   1.01791E+06,   1.01791E+06
C:/temp/Job-40.odb,Step-1,Increment      1: Step Time =    1.000,"P-40-1",           208,       95.4098,       19.5698,            0.,NA,NA,"",   1.00855E+06,   1.02826E+06,   1.02826E+06
C:/temp/Job-40.odb,Step-1,Increment      1: Step Time =    1.000,"P-40-1",           209,       85.5455,       19.3937,            0.,NA,NA,"",   1.04235E+06,   1.05436E+06,   1.05436E+06
C:/temp/Job-40.odb,Step-1,Increment      1: Step Time =    1.000,"P-40-1",           210,       75.9026,       19.2083,            0.,NA,NA,"",   1.08225E+06,   1.08378E+06,   1.08378E+06
C:/temp/Job-40.odb,Step-1,Increment      1: Step Time =    1.000,"P-40-1",           211,       65.7014,       20.8388,            0.,NA,NA,"",   1.12919E+06,   1.12209E+06,   1.12209E+06
C:/temp/Job-40.odb,Step-1,Increment      1: Step Time =    1.000,"P-40-1",           212,       52.3543,       21.0192,            0.,NA,NA,"",   1.16492E+06,   1.15498E+06,   1.15498E+06
C:/temp/Job-40.odb,Step-1,Increment      1: Step Time =    1.000,"P-40-1",           213,       42.0112,       21.6370,            0.,NA,NA,"",   1.18145E+06,   1.17729E+06,   1.17729E+06
C:/temp/Job-40.odb,Step-1,Increment      1: Step Time =    1.000,"P-40-1",           214,       34.6437,       22.1891,            0.,NA,NA,"",   1.18583E+06,   1.19077E+06,   1.19077E+06
C:/temp/Job-40.odb,Step-1,Increment      1: Step Time =    1.000,"P-40-1",           215,       22.5654,       19.5918,            0.,NA,NA,"",   1.20374E+06,   1.23027E+06,   1.23027E+06
C:/temp/Job-40.odb,Step-1,Increment      1: Step Time =    1.000,"P-40-1",           216,       11.7954,       21.0958,            0.,NA,NA,"",   1.14883E+06,   1.22128E+06,   1.22128E+06
C:/temp/Job-40.odb,Step-1,Increment      1: Step Time =    1.000,"P-40-1",           217,       191.020,       33.9870,            0.,NA,NA,"",   995.807E+03,   1.00685E+06,   1.00685E+06
C:/temp/Job-40.odb,Step-1,Increment      1: Step Time =    1.000,"P-40-1",           218,       181.169,       33.8977,            0.,NA,NA,"",   1.02051E+06,   1.02536E+06,   1.02536E+06
C:/temp/Job-40.odb,Step-1,Increment      1: Step Time =    1.000,"P-40-1",           219,       168.063,       31.3161,            0.,NA,NA,"",   1.06451E+06,   1.05457E+06,   1.05457E+06
C:/temp/Job-40.odb,Step-1,Increment      1: Step Time =    1.000,"P-40-1",           220,       158.857,       34.4749,            0.,NA,NA,"",   1.10717E+06,   1.08593E+06,   1.08593E+06
C:/temp/Job-40.odb,Step-1,Increment      1: Step Time =    1.000,"P-40-1",           221,       148.427,       31.0942,            0.,NA,NA,"",   1.12456E+06,   1.10097E+06,   1.10097E+06
C:/temp/Job-40.odb,Step-1,Increment      1: Step Time =    1.000,"P-40-1",           222,       137.467,       31.9929,            0.,NA,NA,"",   1.14108E+06,   1.12237E+06,   1.12237E+06
C:/temp/Job-40.odb,Step-1,Increment      1: Step Time =    1.000,"P-40-1",           223,       126.210,       30.3744,            0.,NA,NA,"",   1.11574E+06,   1.11615E+06,   1.11615E+06
C:/temp/Job-40.odb,Step-1,Increment      1: Step Time =    1.000,"P-40-1",           224,       115.155,       30.0228,            0.,NA,NA,"",   1.07805E+06,   1.10498E+06,   1.10498E+06
C:/temp/Job-40.odb,Step-1,Increment      1: Step Time =    1.000,"P-40-1",           225,       104.453,       31.5618,            0.,NA,NA,"",   1.05909E+06,   1.10577E+06,   1.10577E+06
C:/temp/Job-40.odb,Step-1,Increment      1: Step Time =    1.000,"P-40-1",           226,       96.7319,       35.1102,            0.,NA,NA,"",   1.08613E+06,   1.14107E+06,   1.14107E+06
C:/temp/Job-40.odb,Step-1,Increment      1: Step Time =    1.000,"P-40-1",           227,       86.2795,       34.1545,            0.,NA,NA,"",   1.12617E+06,   1.15881E+06,   1.15881E+06
C:/temp/Job-40.odb,Step-1,Increment      1: Step Time =    1.000,"P-40-1",           228,       72.6477,       31.6107,            0.,NA,NA,"",   1.17664E+06,   1.17391E+06,   1.17391E+06
C:/temp/Job-40.odb,Step-1,Increment      1: Step Time =    1.000,"P-40-1",           229,       63.9915,       30.9304,            0.,NA,NA,"",   1.19322E+06,   1.17853E+06,   1.17853E+06
C:/temp/Job-40.odb,Step-1,Increment      1: Step Time =    1.000,"P-40-1",           230,       54.3127,       30.8088,            0.,NA,NA,"",   1.19760E+06,   1.18007E+06,   1.18007E+06
C:/temp/Job-40.odb,Step-1,Increment      1: Step Time =    1.000,"P-40-1",           231,       40.7712,       33.2872,            0.,NA,NA,"",   1.17373E+06,   1.17058E+06,   1.17058E+06
C:/temp/Job-40.odb,Step-1,Increment      1: Step Time =    1.000,"P-40-1",           232,       29.5149,       29.3149,            0.,NA,NA,"",   1.15263E+06,   1.17362E+06,   1.17362E+06
C:/temp/Job-40.odb,Step-1,Increment      1: Step Time =    1.000,"P-40-1",           233,       22.2917,       31.8463,            0.,NA,NA,"",   1.10879E+06,   1.15316E+06,   1.15316E+06
C:/temp/Job-40.odb,Step-1,Increment      1: Step Time =    1.000,"P-40-1",           234,       9.90467,       35.8232,            0.,NA,NA,"",   996.163E+03,   1.08682E+06,   1.08682E+06
C:/temp/Job-40.odb,Step-1,Increment      1: Step Time =    1.000,"P-40-1",           235,       190.306,       42.9290,            0.,NA,NA,"",   989.598E+03,   1.01066E+06,   1.01066E+06
C:/temp/Job-40.odb,Step-1,Increment      1: Step Time =    1.000,"P-40-1",           236,       176.140,       43.6652,            0.,NA,NA,"",   1.04900E+06,   1.04888E+06,   1.04888E+06
C:/temp/Job-40.odb,Step-1,Increment      1: Step Time =    1.000,"P-40-1",           237,       169.381,       43.8112,            0.,NA,NA,"",   1.08383E+06,   1.07112E+06,   1.07112E+06
C:/temp/Job-40.odb,Step-1,Increment      1: Step Time =    1.000,"P-40-1",           238,       159.421,       40.8819,            0.,NA,NA,"",   1.13529E+06,   1.10637E+06,   1.10637E+06
C:/temp/Job-40.odb,Step-1,Increment      1: Step Time =    1.000,"P-40-1",           239,       146.990,       39.7149,            0.,NA,NA,"",   1.18349E+06,   1.14580E+06,   1.14580E+06
C:/temp/Job-40.odb,Step-1,Increment      1: Step Time =    1.000,"P-40-1",           240,       137.028,       43.6294,            0.,NA,NA,"",   1.23933E+06,   1.20017E+06,   1.20017E+06
C:/temp/Job-40.odb,Step-1,Increment      1: Step Time =    1.000,"P-40-1",           241,       122.269,       39.0160,            0.,NA,NA,"",   1.17352E+06,   1.18523E+06,   1.18523E+06
C:/temp/Job-40.odb,Step-1,Increment      1: Step Time =    1.000,"P-40-1",           242,       116.167,       39.6934,            0.,NA,NA,"",   1.14986E+06,   1.18506E+06,   1.18506E+06
C:/temp/Job-40.odb,Step-1,Increment      1: Step Time =    1.000,"P-40-1",           243,       105.873,       42.9657,            0.,NA,NA,"",   1.12505E+06,   1.20055E+06,   1.20055E+06
C:/temp/Job-40.odb,Step-1,Increment      1: Step Time =    1.000,"P-40-1",           244,       99.2476,       43.2898,            0.,NA,NA,"",   1.12211E+06,   1.20226E+06,   1.20226E+06
C:/temp/Job-40.odb,Step-1,Increment      1: Step Time =    1.000,"P-40-1",           245,       84.7386,       45.0351,            0.,NA,NA,"",   1.21339E+06,   1.25444E+06,   1.25444E+06
C:/temp/Job-40.odb,Step-1,Increment      1: Step Time =    1.000,"P-40-1",           246,       73.5564,       40.7484,            0.,NA,NA,"",   1.23531E+06,   1.23053E+06,   1.23053E+06
C:/temp/Job-40.odb,Step-1,Increment      1: Step Time =    1.000,"P-40-1",           247,       64.0189,       41.2752,            0.,NA,NA,"",   1.25055E+06,   1.22447E+06,   1.22447E+06
C:/temp/Job-40.odb,Step-1,Increment      1: Step Time =    1.000,"P-40-1",           248,       50.6340,       40.8605,            0.,NA,NA,"",   1.20536E+06,   1.18290E+06,   1.18290E+06
C:/temp/Job-40.odb,Step-1,Increment      1: Step Time =    1.000,"P-40-1",           249,       42.5000,       41.5840,            0.,NA,NA,"",   1.16003E+06,   1.15374E+06,   1.15374E+06
C:/temp/Job-40.odb,Step-1,Increment      1: Step Time =    1.000,"P-40-1",           250,       30.3038,       41.5797,            0.,NA,NA,"",   1.08796E+06,   1.11482E+06,   1.11482E+06
C:/temp/Job-40.odb,Step-1,Increment      1: Step Time =    1.000,"P-40-1",           251,       21.4046,       43.4013,            0.,NA,NA,"",   1.01691E+06,   1.07329E+06,   1.07329E+06
C:/temp/Job-40.odb,Step-1,Increment      1: Step Time =    1.000,"P-40-1",           252,       11.4274,       46.4160,            0.,NA,NA,"",   927.860E+03,   1.01420E+06,   1.01420E+06
C:/temp/Job-40.odb,Step-1,Increment      1: Step Time =    1.000,"P-40-1",           253,       187.168,       51.1096,            0.,NA,NA,"",   991.362E+03,   1.01893E+06,   1.01893E+06
C:/temp/Job-40.odb,Step-1,Increment      1: Step Time =    1.000,"P-40-1",           254,       177.250,       53.6834,            0.,NA,NA,"",   1.03627E+06,   1.04486E+06,   1.04486E+06
C:/temp/Job-40.odb,Step-1,Increment      1: Step Time =    1.000,"P-40-1",           255,       168.321,       54.9025,            0.,NA,NA,"",   1.09174E+06,   1.07611E+06,   1.07611E+06
C:/temp/Job-40.odb,Step-1,Increment      1: Step Time =    1.000,"P-40-1",           256,       158.613,       49.4484,            0.,NA,NA,"",   1.16167E+06,   1.12193E+06,   1.12193E+06
C:/temp/Job-40.odb,Step-1,Increment      1: Step Time =    1.000,"P-40-1",           257,       146.323,       51.8965,            0.,NA,NA,"",   1.25820E+06,   1.19229E+06,   1.19229E+06
C:/temp/Job-40.odb,Step-1,Increment      1: Step Time =    1.000,"P-40-1",           258,       134.328,       53.3907,            0.,NA,NA,"",   1.33732E+06,   1.27509E+06,   1.27509E+06
C:/temp/Job-40.odb,Step-1,Increment      1: Step Time =    1.000,"P-40-1",           259,       122.696,       52.5175,            0.,NA,NA,"",   1.32871E+06,   1.32547E+06,   1.32547E+06
C:/temp/Job-40.odb,Step-1,Increment      1: Step Time =    1.000,"P-40-1",           260,       115.672,       52.5491,            0.,NA,NA,"",   1.28606E+06,   1.33413E+06,   1.33413E+06
C:/temp/Job-40.odb,Step-1,Increment      1: Step Time =    1.000,"P-40-1",           261,       108.681,       54.5735,            0.,NA,NA,"",   1.27361E+06,   1.36951E+06,   1.36951E+06
C:/temp/Job-40.odb,Step-1,Increment      1: Step Time =    1.000,"P-40-1",           262,       95.2079,       52.5262,            0.,NA,NA,"",   1.22093E+06,   1.32395E+06,   1.32395E+06
C:/temp/Job-40.odb,Step-1,Increment      1: Step Time =    1.000,"P-40-1",           263,       82.4411,       54.3540,            0.,NA,NA,"",   1.33306E+06,   1.36584E+06,   1.36584E+06
C:/temp/Job-40.odb,Step-1,Increment      1: Step Time =    1.000,"P-40-1",           264,       72.5396,       51.6183,            0.,NA,NA,"",   1.32984E+06,    1.3041E+06,    1.3041E+06
C:/temp/Job-40.odb,Step-1,Increment      1: Step Time =    1.000,"P-40-1",           265,       63.2654,       55.3228,            0.,NA,NA,"",   1.30015E+06,   1.24491E+06,   1.24491E+06
C:/temp/Job-40.odb,Step-1,Increment      1: Step Time =    1.000,"P-40-1",           266,       53.1296,       53.8581,            0.,NA,NA,"",   1.20550E+06,   1.16704E+06,   1.16704E+06
C:/temp/Job-40.odb,Step-1,Increment      1: Step Time =    1.000,"P-40-1",           267,       42.7622,       54.9193,            0.,NA,NA,"",   1.09677E+06,   1.08932E+06,   1.08932E+06
C:/temp/Job-40.odb,Step-1,Increment      1: Step Time =    1.000,"P-40-1",           268,       28.4140,       50.6675,            0.,NA,NA,"",   1.00743E+06,   1.04662E+06,   1.04662E+06
C:/temp/Job-40.odb,Step-1,Increment      1: Step Time =    1.000,"P-40-1",           269,       20.5183,       51.6593,            0.,NA,NA,"",   943.422E+03,   1.00708E+06,   1.00708E+06
C:/temp/Job-40.odb,Step-1,Increment      1: Step Time =    1.000,"P-40-1",           270,       9.62638,       51.6936,            0.,NA,NA,"",   879.357E+03,   969.836E+03,   969.836E+03
C:/temp/Job-40.odb,Step-1,Increment      1: Step Time =    1.000,"P-40-1",           271,       189.778,       66.4735,            0.,NA,NA,"",   945.248E+03,   1.00637E+06,   1.00637E+06
C:/temp/Job-40.odb,Step-1,Increment      1: Step Time =    1.000,"P-40-1",           272,       178.630,       66.1547,            0.,NA,NA,"",   995.086E+03,   1.02284E+06,   1.02284E+06
C:/temp/Job-40.odb,Step-1,Increment      1: Step Time =    1.000,"P-40-1",           273,       167.737,       64.4171,            0.,NA,NA,"",   1.06820E+06,   1.05472E+06,   1.05472E+06
C:/temp/Job-40.odb,Step-1,Increment      1: Step Time =    1.000,"P-40-1",           274,       146.551,       63.3213,            0.,NA,NA,"",   1.27349E+06,   1.17713E+06,   1.17713E+06
C:/temp/Job-40.odb,Step-1,Increment      1: Step Time =    1.000,"P-40-1",           275,       135.382,       64.1510,            0.,NA,NA,"",   1.40533E+06,   1.28943E+06,   1.28943E+06
C:/temp/Job-40.odb,Step-1,Increment      1: Step Time =    1.000,"P-40-1",           276,       126.139,       62.2529,            0.,NA,NA,"",   1.45627E+06,   1.39271E+06,   1.39271E+06
C:/temp/Job-40.odb,Step-1,Increment      1: Step Time =    1.000,"P-40-1",           277,       117.273,       64.4674,            0.,NA,NA,"",   1.48826E+06,   1.51356E+06,   1.51356E+06
C:/temp/Job-40.odb,Step-1,Increment      1: Step Time =    1.000,"P-40-1",           278,       105.620,       62.3766,            0.,NA,NA,"",   1.45505E+06,   1.58969E+06,   1.58969E+06
C:/temp/Job-40.odb,Step-1,Increment      1: Step Time =    1.000,"P-40-1",           279,       93.4743,       58.6219,            0.,NA,NA,"",   1.33551E+06,   1.45136E+06,   1.45136E+06
C:/temp/Job-40.odb,Step-1,Increment      1: Step Time =    1.000,"P-40-1",           280,       81.2080,       64.2366,            0.,NA,NA,"",   1.48405E+06,   1.48760E+06,   1.48760E+06
C:/temp/Job-40.odb,Step-1,Increment      1: Step Time =    1.000,"P-40-1",           281,       72.0170,       61.5841,            0.,NA,NA,"",   1.39792E+06,   1.33643E+06,   1.33643E+06
C:/temp/Job-40.odb,Step-1,Increment      1: Step Time =    1.000,"P-40-1",           282,       62.7494,       63.7125,            0.,NA,NA,"",   1.28721E+06,   1.20994E+06,   1.20994E+06
C:/temp/Job-40.odb,Step-1,Increment      1: Step Time =    1.000,"P-40-1",           283,       50.5888,       64.0076,            0.,NA,NA,"",   1.11314E+06,   1.07422E+06,   1.07422E+06
C:/temp/Job-40.odb,Step-1,Increment      1: Step Time =    1.000,"P-40-1",           284,       43.3501,       68.6902,            0.,NA,NA,"",   958.557E+03,   958.049E+03,   958.049E+03
C:/temp/Job-40.odb,Step-1,Increment      1: Step Time =    1.000,"P-40-1",           285,       33.7759,       58.9458,            0.,NA,NA,"",   975.006E+03,   1.00294E+06,   1.00294E+06
C:/temp/Job-40.odb,Step-1,Increment      1: Step Time =    1.000,"P-40-1",           286,       21.0825,       62.2600,            0.,NA,NA,"",   861.147E+03,   927.702E+03,   927.702E+03
C:/temp/Job-40.odb,Step-1,Increment      1: Step Time =    1.000,"P-40-1",           287,       8.66946,       65.7646,            0.,NA,NA,"",   777.437E+03,   866.912E+03,   866.912E+03
C:/temp/Job-40.odb,Step-1,Increment      1: Step Time =    1.000,"P-40-1",           288,       190.646,       134.571,            0.,NA,NA,"",   946.029E+03,   1.00708E+06,   1.00708E+06
C:/temp/Job-40.odb,Step-1,Increment      1: Step Time =    1.000,"P-40-1",           289,       181.251,       134.217,            0.,NA,NA,"",   985.389E+03,   1.02002E+06,   1.02002E+06
C:/temp/Job-40.odb,Step-1,Increment      1: Step Time =    1.000,"P-40-1",           290,       168.328,       136.525,            0.,NA,NA,"",   1.06594E+06,   1.05532E+06,   1.05532E+06
C:/temp/Job-40.odb,Step-1,Increment      1: Step Time =    1.000,"P-40-1",           291,       146.805,       136.700,            0.,NA,NA,"",   1.26982E+06,   1.17611E+06,   1.17611E+06
C:/temp/Job-40.odb,Step-1,Increment      1: Step Time =    1.000,"P-40-1",           292,       140.585,       136.277,            0.,NA,NA,"",   1.33927E+06,   1.23095E+06,   1.23095E+06
C:/temp/Job-40.odb,Step-1,Increment      1: Step Time =    1.000,"P-40-1",           293,       127.654,       138.205,            0.,NA,NA,"",   1.43985E+06,   1.36786E+06,   1.36786E+06
C:/temp/Job-40.odb,Step-1,Increment      1: Step Time =    1.000,"P-40-1",           294,       119.719,       137.409,            0.,NA,NA,"",   1.45973E+06,   1.46013E+06,   1.46013E+06
C:/temp/Job-40.odb,Step-1,Increment      1: Step Time =    1.000,"P-40-1",           295,       106.599,       139.350,            0.,NA,NA,"",   1.37901E+06,   1.50195E+06,   1.50195E+06
C:/temp/Job-40.odb,Step-1,Increment      1: Step Time =    1.000,"P-40-1",           296,       94.6572,       137.615,            0.,NA,NA,"",   1.46717E+06,   1.60064E+06,   1.60064E+06
C:/temp/Job-40.odb,Step-1,Increment      1: Step Time =    1.000,"P-40-1",           297,       81.4779,       136.565,            0.,NA,NA,"",   1.45732E+06,   1.46524E+06,   1.46524E+06
C:/temp/Job-40.odb,Step-1,Increment      1: Step Time =    1.000,"P-40-1",           298,       74.5447,       135.139,            0.,NA,NA,"",   1.42967E+06,   1.36949E+06,   1.36949E+06
C:/temp/Job-40.odb,Step-1,Increment      1: Step Time =    1.000,"P-40-1",           299,       67.0226,       134.978,            0.,NA,NA,"",   1.33277E+06,   1.24812E+06,   1.24812E+06
C:/temp/Job-40.odb,Step-1,Increment      1: Step Time =    1.000,"P-40-1",           300,       52.9313,       140.137,            0.,NA,NA,"",   1.17217E+06,   1.12812E+06,   1.12812E+06
C:/temp/Job-40.odb,Step-1,Increment      1: Step Time =    1.000,"P-40-1",           301,       43.9214,       134.301,            0.,NA,NA,"",   1.00840E+06,   1.00067E+06,   1.00067E+06
C:/temp/Job-40.odb,Step-1,Increment      1: Step Time =    1.000,"P-40-1",           302,       33.4468,       133.774,            0.,NA,NA,"",   899.442E+03,   935.744E+03,   935.744E+03
C:/temp/Job-40.odb,Step-1,Increment      1: Step Time =    1.000,"P-40-1",           303,       19.1283,       132.756,            0.,NA,NA,"",   808.314E+03,   881.822E+03,   881.822E+03
C:/temp/Job-40.odb,Step-1,Increment      1: Step Time =    1.000,"P-40-1",           304,       9.96879,       133.991,            0.,NA,NA,"",   780.708E+03,   868.472E+03,   868.472E+03
C:/temp/Job-40.odb,Step-1,Increment      1: Step Time =    1.000,"P-40-1",           305,       190.871,       148.862,            0.,NA,NA,"",   976.562E+03,   1.01016E+06,   1.01016E+06
C:/temp/Job-40.odb,Step-1,Increment      1: Step Time =    1.000,"P-40-1",           306,       181.489,       143.741,            0.,NA,NA,"",   1.00931E+06,   1.03139E+06,   1.03139E+06
C:/temp/Job-40.odb,Step-1,Increment      1: Step Time =    1.000,"P-40-1",           307,       169.210,       147.760,            0.,NA,NA,"",   1.08763E+06,   1.07403E+06,   1.07403E+06
C:/temp/Job-40.odb,Step-1,Increment      1: Step Time =    1.000,"P-40-1",           308,       160.334,       146.139,            0.,NA,NA,"",   1.15207E+06,   1.11296E+06,   1.11296E+06
C:/temp/Job-40.odb,Step-1,Increment      1: Step Time =    1.000,"P-40-1",           309,       146.085,       142.467,            0.,NA,NA,"",   1.27495E+06,   1.19467E+06,   1.19467E+06
C:/temp/Job-40.odb,Step-1,Increment      1: Step Time =    1.000,"P-40-1",           310,       133.427,       147.297,            0.,NA,NA,"",   1.33730E+06,   1.27989E+06,   1.27989E+06
C:/temp/Job-40.odb,Step-1,Increment      1: Step Time =    1.000,"P-40-1",           311,       128.477,       148.393,            0.,NA,NA,"",   1.32906E+06,   1.29301E+06,   1.29301E+06
C:/temp/Job-40.odb,Step-1,Increment      1: Step Time =    1.000,"P-40-1",           312,       115.582,       149.242,            0.,NA,NA,"",   1.25992E+06,   1.30950E+06,   1.30950E+06
C:/temp/Job-40.odb,Step-1,Increment      1: Step Time =    1.000,"P-40-1",           313,       104.233,       148.494,            0.,NA,NA,"",   1.20102E+06,   1.30348E+06,   1.30348E+06
C:/temp/Job-40.odb,Step-1,Increment      1: Step Time =    1.000,"P-40-1",           314,       92.2345,       145.626,            0.,NA,NA,"",   1.27458E+06,   1.37233E+06,   1.37233E+06
C:/temp/Job-40.odb,Step-1,Increment      1: Step Time =    1.000,"P-40-1",           315,       81.8290,       146.601,            0.,NA,NA,"",   1.33044E+06,   1.35231E+06,   1.35231E+06
C:/temp/Job-40.odb,Step-1,Increment      1: Step Time =    1.000,"P-40-1",           316,       70.8920,       145.310,            0.,NA,NA,"",   1.34423E+06,   1.30208E+06,   1.30208E+06
C:/temp/Job-40.odb,Step-1,Increment      1: Step Time =    1.000,"P-40-1",           317,       61.6536,       148.837,            0.,NA,NA,"",   1.27557E+06,   1.23069E+06,   1.23069E+06
C:/temp/Job-40.odb,Step-1,Increment      1: Step Time =    1.000,"P-40-1",           318,       43.3492,       147.394,            0.,NA,NA,"",   1.11374E+06,   1.10524E+06,   1.10524E+06
C:/temp/Job-40.odb,Step-1,Increment      1: Step Time =    1.000,"P-40-1",           319,       31.3593,       144.493,            0.,NA,NA,"",   989.164E+03,   1.02225E+06,   1.02225E+06
C:/temp/Job-40.odb,Step-1,Increment      1: Step Time =    1.000,"P-40-1",           320,       21.2147,       148.412,            0.,NA,NA,"",   950.129E+03,   1.01189E+06,   1.01189E+06
C:/temp/Job-40.odb,Step-1,Increment      1: Step Time =    1.000,"P-40-1",           321,       11.2306,       148.416,            0.,NA,NA,"",   892.568E+03,   979.166E+03,   979.166E+03
C:/temp/Job-40.odb,Step-1,Increment      1: Step Time =    1.000,"P-40-1",           322,       188.857,       158.785,            0.,NA,NA,"",   996.409E+03,   1.01327E+06,   1.01327E+06
C:/temp/Job-40.odb,Step-1,Increment      1: Step Time =    1.000,"P-40-1",           323,       174.841,       159.329,            0.,NA,NA,"",   1.05156E+06,   1.04917E+06,   1.04917E+06
C:/temp/Job-40.odb,Step-1,Increment      1: Step Time =    1.000,"P-40-1",           324,       166.701,       158.643,            0.,NA,NA,"",   1.09132E+06,   1.07556E+06,   1.07556E+06
C:/temp/Job-40.odb,Step-1,Increment      1: Step Time =    1.000,"P-40-1",           325,       156.270,       158.558,            0.,NA,NA,"",   1.15066E+06,   1.11681E+06,   1.11681E+06
C:/temp/Job-40.odb,Step-1,Increment      1: Step Time =    1.000,"P-40-1",           326,       148.251,       159.264,            0.,NA,NA,"",   1.18471E+06,   1.14495E+06,   1.14495E+06
C:/temp/Job-40.odb,Step-1,Increment      1: Step Time =    1.000,"P-40-1",           327,       136.115,       158.836,            0.,NA,NA,"",   1.22109E+06,   1.18871E+06,   1.18871E+06
C:/temp/Job-40.odb,Step-1,Increment      1: Step Time =    1.000,"P-40-1",           328,       129.702,       153.569,            0.,NA,NA,"",   1.26825E+06,   1.24119E+06,   1.24119E+06
C:/temp/Job-40.odb,Step-1,Increment      1: Step Time =    1.000,"P-40-1",           329,       115.571,       161.096,            0.,NA,NA,"",   1.13759E+06,   1.17489E+06,   1.17489E+06
C:/temp/Job-40.odb,Step-1,Increment      1: Step Time =    1.000,"P-40-1",           330,       106.323,       157.199,            0.,NA,NA,"",   1.12855E+06,   1.20142E+06,   1.20142E+06
C:/temp/Job-40.odb,Step-1,Increment      1: Step Time =    1.000,"P-40-1",           331,       94.3793,       156.426,            0.,NA,NA,"",   1.14227E+06,   1.21843E+06,   1.21843E+06
C:/temp/Job-40.odb,Step-1,Increment      1: Step Time =    1.000,"P-40-1",           332,       81.7355,       155.730,            0.,NA,NA,"",   1.23227E+06,   1.25790E+06,   1.25790E+06
C:/temp/Job-40.odb,Step-1,Increment      1: Step Time =    1.000,"P-40-1",           333,       72.5574,       155.181,            0.,NA,NA,"",   1.27555E+06,   1.26105E+06,   1.26105E+06
C:/temp/Job-40.odb,Step-1,Increment      1: Step Time =    1.000,"P-40-1",           334,       63.2447,       159.419,            0.,NA,NA,"",   1.24647E+06,   1.21944E+06,   1.21944E+06
C:/temp/Job-40.odb,Step-1,Increment      1: Step Time =    1.000,"P-40-1",           335,       52.8797,       160.179,            0.,NA,NA,"",   1.21372E+06,   1.18943E+06,   1.18943E+06
C:/temp/Job-40.odb,Step-1,Increment      1: Step Time =    1.000,"P-40-1",           336,       42.1492,       155.282,            0.,NA,NA,"",   1.14481E+06,   1.13948E+06,   1.13948E+06
C:/temp/Job-40.odb,Step-1,Increment      1: Step Time =    1.000,"P-40-1",           337,       35.0513,       153.269,            0.,NA,NA,"",   1.08645E+06,   1.10146E+06,   1.10146E+06
C:/temp/Job-40.odb,Step-1,Increment      1: Step Time =    1.000,"P-40-1",           338,       19.3434,       159.235,            0.,NA,NA,"",   1.02016E+06,   1.08257E+06,   1.08257E+06
C:/temp/Job-40.odb,Step-1,Increment      1: Step Time =    1.000,"P-40-1",           339,       9.07551,       160.406,            0.,NA,NA,"",   961.571E+03,   1.05480E+06,   1.05480E+06
C:/temp/Job-40.odb,Step-1,Increment      1: Step Time =    1.000,"P-40-1",           340,       189.549,       169.608,            0.,NA,NA,"",   1.00107E+06,   1.00858E+06,   1.00858E+06
C:/temp/Job-40.odb,Step-1,Increment      1: Step Time =    1.000,"P-40-1",           341,       179.270,       169.126,            0.,NA,NA,"",   1.02572E+06,   1.02748E+06,   1.02748E+06
C:/temp/Job-40.odb,Step-1,Increment      1: Step Time =    1.000,"P-40-1",           342,       169.746,       167.605,            0.,NA,NA,"",   1.06030E+06,   1.05203E+06,   1.05203E+06
C:/temp/Job-40.odb,Step-1,Increment      1: Step Time =    1.000,"P-40-1",           343,       153.479,       167.791,            0.,NA,NA,"",   1.11831E+06,   1.09453E+06,   1.09453E+06
C:/temp/Job-40.odb,Step-1,Increment      1: Step Time =    1.000,"P-40-1",           344,       144.301,       168.469,            0.,NA,NA,"",   1.13531E+06,   1.11123E+06,   1.11123E+06
C:/temp/Job-40.odb,Step-1,Increment      1: Step Time =    1.000,"P-40-1",           345,       135.165,       168.288,            0.,NA,NA,"",   1.14260E+06,   1.12622E+06,   1.12622E+06
C:/temp/Job-40.odb,Step-1,Increment      1: Step Time =    1.000,"P-40-1",           346,       125.172,       165.823,            0.,NA,NA,"",   1.14619E+06,   1.14956E+06,   1.14956E+06
C:/temp/Job-40.odb,Step-1,Increment      1: Step Time =    1.000,"P-40-1",           347,       112.896,       170.184,            0.,NA,NA,"",   1.06785E+06,   1.09898E+06,   1.09898E+06
C:/temp/Job-40.odb,Step-1,Increment      1: Step Time =    1.000,"P-40-1",           348,       104.412,       168.620,            0.,NA,NA,"",   1.05919E+06,   1.10479E+06,   1.10479E+06
C:/temp/Job-40.odb,Step-1,Increment      1: Step Time =    1.000,"P-40-1",           349,       93.3963,       166.386,            0.,NA,NA,"",   1.08963E+06,   1.13605E+06,   1.13605E+06
C:/temp/Job-40.odb,Step-1,Increment      1: Step Time =    1.000,"P-40-1",           350,       88.8751,       170.216,            0.,NA,NA,"",   1.08956E+06,   1.11986E+06,   1.11986E+06
C:/temp/Job-40.odb,Step-1,Increment      1: Step Time =    1.000,"P-40-1",           351,       70.9564,       170.140,            0.,NA,NA,"",   1.17181E+06,   1.16644E+06,   1.16644E+06
C:/temp/Job-40.odb,Step-1,Increment      1: Step Time =    1.000,"P-40-1",           352,       65.1919,       168.138,            0.,NA,NA,"",   1.19913E+06,   1.18447E+06,   1.18447E+06
C:/temp/Job-40.odb,Step-1,Increment      1: Step Time =    1.000,"P-40-1",           353,       52.1605,       168.509,            0.,NA,NA,"",   1.19890E+06,   1.18166E+06,   1.18166E+06
C:/temp/Job-40.odb,Step-1,Increment      1: Step Time =    1.000,"P-40-1",           354,       40.8756,       169.814,            0.,NA,NA,"",   1.17786E+06,   1.17469E+06,   1.17469E+06
C:/temp/Job-40.odb,Step-1,Increment      1: Step Time =    1.000,"P-40-1",           355,       31.1178,       168.410,            0.,NA,NA,"",   1.14588E+06,   1.16474E+06,   1.16474E+06
C:/temp/Job-40.odb,Step-1,Increment      1: Step Time =    1.000,"P-40-1",           356,       19.6610,       169.741,            0.,NA,NA,"",   1.10724E+06,   1.15989E+06,   1.15989E+06
C:/temp/Job-40.odb,Step-1,Increment      1: Step Time =    1.000,"P-40-1",           357,       9.48115,       169.566,            0.,NA,NA,"",   1.03545E+06,   1.12658E+06,   1.12658E+06
C:/temp/Job-40.odb,Step-1,Increment      1: Step Time =    1.000,"P-40-1",           358,       189.520,       179.709,            0.,NA,NA,"",   1.00240E+06,   1.00509E+06,   1.00509E+06
C:/temp/Job-40.odb,Step-1,Increment      1: Step Time =    1.000,"P-40-1",           359,       178.165,       179.657,            0.,NA,NA,"",   1.01731E+06,   1.01729E+06,   1.01729E+06
C:/temp/Job-40.odb,Step-1,Increment      1: Step Time =    1.000,"P-40-1",           360,       166.284,       180.980,            0.,NA,NA,"",   1.03402E+06,   1.02895E+06,   1.02895E+06
C:/temp/Job-40.odb,Step-1,Increment      1: Step Time =    1.000,"P-40-1",           361,       156.622,       175.844,            0.,NA,NA,"",   1.07045E+06,   1.05721E+06,   1.05721E+06
C:/temp/Job-40.odb,Step-1,Increment      1: Step Time =    1.000,"P-40-1",           362,       146.226,       177.105,            0.,NA,NA,"",   1.07711E+06,   1.06329E+06,   1.06329E+06
C:/temp/Job-40.odb,Step-1,Increment      1: Step Time =    1.000,"P-40-1",           363,       133.720,       178.679,            0.,NA,NA,"",   1.06035E+06,   1.05441E+06,   1.05441E+06
C:/temp/Job-40.odb,Step-1,Increment      1: Step Time =    1.000,"P-40-1",           364,       123.955,       180.955,            0.,NA,NA,"",   1.02594E+06,   1.02970E+06,   1.02970E+06
C:/temp/Job-40.odb,Step-1,Increment      1: Step Time =    1.000,"P-40-1",           365,       114.711,       180.031,            0.,NA,NA,"",   1.01283E+06,   1.02705E+06,   1.02705E+06
C:/temp/Job-40.odb,Step-1,Increment      1: Step Time =    1.000,"P-40-1",           366,       104.716,       179.198,            0.,NA,NA,"",   1.00616E+06,   1.02948E+06,   1.02948E+06
C:/temp/Job-40.odb,Step-1,Increment      1: Step Time =    1.000,"P-40-1",           367,       94.3718,       179.542,            0.,NA,NA,"",   1.01764E+06,   1.03940E+06,   1.03940E+06
C:/temp/Job-40.odb,Step-1,Increment      1: Step Time =    1.000,"P-40-1",           368,       84.1525,       180.223,            0.,NA,NA,"",   1.05012E+06,   1.06064E+06,   1.06064E+06
C:/temp/Job-40.odb,Step-1,Increment      1: Step Time =    1.000,"P-40-1",           369,       74.6440,       180.913,            0.,NA,NA,"",   1.08612E+06,   1.08631E+06,   1.08631E+06
C:/temp/Job-40.odb,Step-1,Increment      1: Step Time =    1.000,"P-40-1",           370,       65.2921,       181.578,            0.,NA,NA,"",   1.12034E+06,   1.11360E+06,   1.11360E+06
C:/temp/Job-40.odb,Step-1,Increment      1: Step Time =    1.000,"P-40-1",           371,       55.3466,       180.843,            0.,NA,NA,"",   1.15127E+06,   1.14211E+06,   1.14211E+06
C:/temp/Job-40.odb,Step-1,Increment      1: Step Time =    1.000,"P-40-1",           372,       40.0612,       174.318,            0.,NA,NA,"",   1.18265E+06,   1.18017E+06,   1.18017E+06
C:/temp/Job-40.odb,Step-1,Increment      1: Step Time =    1.000,"P-40-1",           373,       30.8367,       178.998,            0.,NA,NA,"",   1.19127E+06,   1.20172E+06,   1.20172E+06
C:/temp/Job-40.odb,Step-1,Increment      1: Step Time =    1.000,"P-40-1",           374,       21.2776,       177.700,            0.,NA,NA,"",   1.17744E+06,   1.21344E+06,   1.21344E+06
C:/temp/Job-40.odb,Step-1,Increment      1: Step Time =    1.000,"P-40-1",           375,       10.7832,       179.453,            0.,NA,NA,"",   1.14959E+06,   1.22544E+06,   1.22544E+06
C:/temp/Job-40.odb,Step-1,Increment      1: Step Time =    1.000,"P-40-1",           376,       189.812,       189.959,            0.,NA,NA,"",   1.00115E+06,   1.00173E+06,   1.00173E+06
C:/temp/Job-40.odb,Step-1,Increment      1: Step Time =    1.000,"P-40-1",           377,       175.310,       190.753,            0.,NA,NA,"",   1.00700E+06,   1.00675E+06,   1.00675E+06
C:/temp/Job-40.odb,Step-1,Increment      1: Step Time =    1.000,"P-40-1",           378,       166.053,       190.977,            0.,NA,NA,"",   1.00985E+06,   1.00849E+06,   1.00849E+06
C:/temp/Job-40.odb,Step-1,Increment      1: Step Time =    1.000,"P-40-1",           379,       157.111,       190.235,            0.,NA,NA,"",   1.01123E+06,   1.00849E+06,   1.00849E+06
C:/temp/Job-40.odb,Step-1,Increment      1: Step Time =    1.000,"P-40-1",           380,       148.934,       187.060,            0.,NA,NA,"",   1.02238E+06,   1.01687E+06,   1.01687E+06
C:/temp/Job-40.odb,Step-1,Increment      1: Step Time =    1.000,"P-40-1",           381,       133.518,       189.782,            0.,NA,NA,"",   983.515E+03,   982.074E+03,   982.074E+03
C:/temp/Job-40.odb,Step-1,Increment      1: Step Time =    1.000,"P-40-1",           382,       124.242,       190.484,            0.,NA,NA,"",   956.143E+03,   957.293E+03,   957.293E+03
C:/temp/Job-40.odb,Step-1,Increment      1: Step Time =    1.000,"P-40-1",           383,       114.613,       190.219,            0.,NA,NA,"",   937.423E+03,   941.871E+03,   941.871E+03
C:/temp/Job-40.odb,Step-1,Increment      1: Step Time =    1.000,"P-40-1",           384,       104.777,       189.899,            0.,NA,NA,"",   931.870E+03,   938.782E+03,   938.782E+03
C:/temp/Job-40.odb,Step-1,Increment      1: Step Time =    1.000,"P-40-1",           385,       94.7957,       189.879,            0.,NA,NA,"",   944.416E+03,   951.062E+03,   951.062E+03
C:/temp/Job-40.odb,Step-1,Increment      1: Step Time =    1.000,"P-40-1",           386,       84.8173,       190.142,            0.,NA,NA,"",   975.714E+03,   979.175E+03,   979.175E+03
C:/temp/Job-40.odb,Step-1,Increment      1: Step Time =    1.000,"P-40-1",           387,       74.9462,       190.448,            0.,NA,NA,"",   1.01832E+06,   1.01822E+06,   1.01822E+06
C:/temp/Job-40.odb,Step-1,Increment      1: Step Time =    1.000,"P-40-1",           388,       65.0995,       190.629,            0.,NA,NA,"",   1.06484E+06,   1.06237E+06,   1.06237E+06
C:/temp/Job-40.odb,Step-1,Increment      1: Step Time =    1.000,"P-40-1",           389,       50.7698,       190.861,            0.,NA,NA,"",   1.12534E+06,   1.12263E+06,   1.12263E+06
C:/temp/Job-40.odb,Step-1,Increment      1: Step Time =    1.000,"P-40-1",           390,       41.1937,       188.794,            0.,NA,NA,"",   1.16670E+06,   1.16505E+06,   1.16505E+06
C:/temp/Job-40.odb,Step-1,Increment      1: Step Time =    1.000,"P-40-1",           391,       30.3792,       189.348,            0.,NA,NA,"",   1.20659E+06,   1.21020E+06,   1.21020E+06
C:/temp/Job-40.odb,Step-1,Increment      1: Step Time =    1.000,"P-40-1",           392,       20.3011,       189.269,            0.,NA,NA,"",   1.25811E+06,   1.27209E+06,   1.27209E+06
C:/temp/Job-40.odb,Step-1,Increment      1: Step Time =    1.000,"P-40-1",           393,       10.1325,       189.822,            0.,NA,NA,"",   1.33281E+06,   1.37923E+06,   1.37923E+06
C:/temp/Job-40.odb,Step-1,Increment      1: Step Time =    1.000,"P-40-1",           394,       95.0101,       123.476,            0.,NA,NA,"",   2.26796E+06,   2.37578E+06,   2.37578E+06
C:/temp/Job-40.odb,Step-1,Increment      1: Step Time =    1.000,"P-40-1",           395,       85.8932,       119.416,            0.,NA,NA,"",   1.40406E+06,   1.42737E+06,   1.42737E+06
C:/temp/Job-40.odb,Step-1,Increment      1: Step Time =    1.000,"P-40-1",           396,       79.2154,          112.,            0.,NA,NA,"",   447.094E+03,   95.5171E+03,   95.5171E+03
C:/temp/Job-40.odb,Step-1,Increment      1: Step Time =    1.000,"P-40-1",           397,       76.1315,       102.509,            0.,NA,NA,"",   606.375E+03,  -610.597E+03,  -610.597E+03
C:/temp/Job-40.odb,Step-1,Increment      1: Step Time =    1.000,"P-40-1",           398,       77.1746,       92.5836,            0.,NA,NA,"",   519.876E+03,  -449.834E+03,  -449.834E+03
C:/temp/Job-40.odb,Step-1,Increment      1: Step Time =    1.000,"P-40-1",           399,       82.1645,       83.9409,            0.,NA,NA,"",   858.316E+03,   824.932E+03,   824.932E+03
C:/temp/Job-40.odb,Step-1,Increment      1: Step Time =    1.000,"P-40-1",           400,       90.2383,       78.0749,            0.,NA,NA,"",   1.92627E+06,   2.00037E+06,   2.00037E+06
C:/temp/Job-40.odb,Step-1,Increment      1: Step Time =    1.000,"P-40-1",           401,          100.,           76.,            0.,NA,NA,"",   2.39142E+06,   2.51192E+06,   2.51192E+06
C:/temp/Job-40.odb,Step-1,Increment      1: Step Time =    1.000,"P-40-1",           402,       109.762,       78.0749,            0.,NA,NA,"",   2.17503E+06,   2.22479E+06,   2.22479E+06
C:/temp/Job-40.odb,Step-1,Increment      1: Step Time =    1.000,"P-40-1",           403,       117.835,       83.9409,            0.,NA,NA,"",   968.676E+03,   924.073E+03,   924.073E+03
C:/temp/Job-40.odb,Step-1,Increment      1: Step Time =    1.000,"P-40-1",           404,       122.825,       92.5836,            0.,NA,NA,"",   609.474E+03,  -522.483E+03,  -522.483E+03
C:/temp/Job-40.odb,Step-1,Increment      1: Step Time =    1.000,"P-40-1",           405,       123.869,       102.509,            0.,NA,NA,"",   743.576E+03,  -745.069E+03,  -745.069E+03
C:/temp/Job-40.odb,Step-1,Increment      1: Step Time =    1.000,"P-40-1",           406,       120.785,          112.,            0.,NA,NA,"",   532.208E+03,   116.165E+03,   116.165E+03
C:/temp/Job-40.odb,Step-1,Increment      1: Step Time =    1.000,"P-40-1",           407,       114.107,       119.416,            0.,NA,NA,"",   1.51963E+06,   1.55041E+06,   1.55041E+06
C:/temp/Job-40.odb,Step-1,Increment      1: Step Time =    1.000,"P-40-1",           408,       104.990,       123.476,            0.,NA,NA,"",   2.57041E+06,   2.65106E+06,   2.65106E+06
C:/temp/Job-40.odb,Step-1,Increment      1: Step Time =    1.000,"P-40-1",           409,          195.,            0.,            0.,NA,NA,"",   999.554E+03,   999.514E+03,   999.514E+03
C:/temp/Job-40.odb,Step-1,Increment      1: Step Time =    1.000,"P-40-1",           410,          185.,            0.,            0.,NA,NA,"",   998.762E+03,   998.845E+03,   998.845E+03
C:/temp/Job-40.odb,Step-1,Increment      1: Step Time =    1.000,"P-40-1",           411,          175.,            0.,            0.,NA,NA,"",   999.787E+03,   999.748E+03,   999.748E+03
C:/temp/Job-40.odb,Step-1,Increment      1: Step Time =    1.000,"P-40-1",           412,          165.,            0.,            0.,NA,NA,"",   999.134E+03,   998.866E+03,   998.866E+03
C:/temp/Job-40.odb,Step-1,Increment      1: Step Time =    1.000,"P-40-1",           413,          155.,            0.,            0.,NA,NA,"",   991.216E+03,   990.850E+03,   990.850E+03
C:/temp/Job-40.odb,Step-1,Increment      1: Step Time =    1.000,"P-40-1",           414,          145.,            0.,            0.,NA,NA,"",   970.831E+03,   970.492E+03,   970.492E+03
C:/temp/Job-40.odb,Step-1,Increment      1: Step Time =    1.000,"P-40-1",           415,          135.,            0.,            0.,NA,NA,"",   938.522E+03,   938.284E+03,   938.284E+03
C:/temp/Job-40.odb,Step-1,Increment      1: Step Time =    1.000,"P-40-1",           416,          125.,            0.,            0.,NA,NA,"",   900.727E+03,   900.826E+03,   900.826E+03
C:/temp/Job-40.odb,Step-1,Increment      1: Step Time =    1.000,"P-40-1",           417,          115.,            0.,            0.,NA,NA,"",   868.034E+03,   868.547E+03,   868.547E+03
C:/temp/Job-40.odb,Step-1,Increment      1: Step Time =    1.000,"P-40-1",           418,          105.,            0.,            0.,NA,NA,"",   853.382E+03,   854.187E+03,   854.187E+03
C:/temp/Job-40.odb,Step-1,Increment      1: Step Time =    1.000,"P-40-1",           419,           95.,            0.,            0.,NA,NA,"",   865.635E+03,   866.401E+03,   866.401E+03
C:/temp/Job-40.odb,Step-1,Increment      1: Step Time =    1.000,"P-40-1",           420,           85.,            0.,            0.,NA,NA,"",   903.855E+03,   904.320E+03,   904.320E+03
C:/temp/Job-40.odb,Step-1,Increment      1: Step Time =    1.000,"P-40-1",           421,           75.,            0.,            0.,NA,NA,"",   959.967E+03,   960.113E+03,   960.113E+03
C:/temp/Job-40.odb,Step-1,Increment      1: Step Time =    1.000,"P-40-1",           422,           65.,            0.,            0.,NA,NA,"",   1.02344E+06,   1.02368E+06,   1.02368E+06
C:/temp/Job-40.odb,Step-1,Increment      1: Step Time =    1.000,"P-40-1",           423,           55.,            0.,            0.,NA,NA,"",   1.08382E+06,   1.08302E+06,   1.08302E+06
C:/temp/Job-40.odb,Step-1,Increment      1: Step Time =    1.000,"P-40-1",           424,           45.,            0.,            0.,NA,NA,"",   1.13161E+06,   1.13140E+06,   1.13140E+06
C:/temp/Job-40.odb,Step-1,Increment      1: Step Time =    1.000,"P-40-1",           425,           35.,            0.,            0.,NA,NA,"",   1.16958E+06,   1.17005E+06,   1.17005E+06
C:/temp/Job-40.odb,Step-1,Increment      1: Step Time =    1.000,"P-40-1",           426,           25.,            0.,            0.,NA,NA,"",   1.21569E+06,   1.21698E+06,   1.21698E+06
C:/temp/Job-40.odb,Step-1,Increment      1: Step Time =    1.000,"P-40-1",           427,           15.,            0.,            0.,NA,NA,"",   1.29822E+06,   1.30392E+06,   1.30392E+06
C:/temp/Job-40.odb,Step-1,Increment      1: Step Time =    1.000,"P-40-1",           428,            5.,            0.,            0.,NA,NA,"",   1.60151E+06,   1.63818E+06,   1.63818E+06
C:/temp/Job-40.odb,Step-1,Increment      1: Step Time =    1.000,"P-40-1",           429,          200.,          195.,            0.,NA,NA,"",   1.00017E+06,   999.927E+03,   999.927E+03
C:/temp/Job-40.odb,Step-1,Increment      1: Step Time =    1.000,"P-40-1",           430,          200.,          185.,            0.,NA,NA,"",   1.00073E+06,   1.00042E+06,   1.00042E+06
C:/temp/Job-40.odb,Step-1,Increment      1: Step Time =    1.000,"P-40-1",           431,          200.,          175.,            0.,NA,NA,"",   998.282E+03,   1.00086E+06,   1.00086E+06
C:/temp/Job-40.odb,Step-1,Increment      1: Step Time =    1.000,"P-40-1",           432,          200.,          165.,            0.,NA,NA,"",   989.886E+03,   1.00115E+06,   1.00115E+06
C:/temp/Job-40.odb,Step-1,Increment      1: Step Time =    1.000,"P-40-1",           433,          200.,          155.,            0.,NA,NA,"",   974.277E+03,   1.00120E+06,   1.00120E+06
C:/temp/Job-40.odb,Step-1,Increment      1: Step Time =    1.000,"P-40-1",           434,          200.,          145.,            0.,NA,NA,"",   950.671E+03,   1.00099E+06,   1.00099E+06
C:/temp/Job-40.odb,Step-1,Increment      1: Step Time =    1.000,"P-40-1",           435,          200.,          135.,            0.,NA,NA,"",   924.342E+03,   1.00084E+06,   1.00084E+06
C:/temp/Job-40.odb,Step-1,Increment      1: Step Time =    1.000,"P-40-1",           436,          200.,          125.,            0.,NA,NA,"",   900.447E+03,   999.939E+03,   999.939E+03
C:/temp/Job-40.odb,Step-1,Increment      1: Step Time =    1.000,"P-40-1",           437,          200.,          115.,            0.,NA,NA,"",   883.845E+03,   998.696E+03,   998.696E+03
C:/temp/Job-40.odb,Step-1,Increment      1: Step Time =    1.000,"P-40-1",           438,          200.,          105.,            0.,NA,NA,"",   875.741E+03,   997.699E+03,   997.699E+03
C:/temp/Job-40.odb,Step-1,Increment      1: Step Time =    1.000,"P-40-1",           439,          200.,           95.,            0.,NA,NA,"",   875.536E+03,   997.699E+03,   997.699E+03
C:/temp/Job-40.odb,Step-1,Increment      1: Step Time =    1.000,"P-40-1",           440,          200.,           85.,            0.,NA,NA,"",   883.182E+03,   998.608E+03,   998.608E+03
C:/temp/Job-40.odb,Step-1,Increment      1: Step Time =    1.000,"P-40-1",           441,          200.,           75.,            0.,NA,NA,"",   899.222E+03,   999.459E+03,   999.459E+03
C:/temp/Job-40.odb,Step-1,Increment      1: Step Time =    1.000,"P-40-1",           442,          200.,           65.,            0.,NA,NA,"",   922.981E+03,   999.385E+03,   999.385E+03
C:/temp/Job-40.odb,Step-1,Increment      1: Step Time =    1.000,"P-40-1",           443,          200.,           55.,            0.,NA,NA,"",   953.874E+03,   1.00315E+06,   1.00315E+06
C:/temp/Job-40.odb,Step-1,Increment      1: Step Time =    1.000,"P-40-1",           444,          200.,           45.,            0.,NA,NA,"",   976.382E+03,   1.00216E+06,   1.00216E+06
C:/temp/Job-40.odb,Step-1,Increment      1: Step Time =    1.000,"P-40-1",           445,          200.,           35.,            0.,NA,NA,"",   990.797E+03,   1.00089E+06,   1.00089E+06
C:/temp/Job-40.odb,Step-1,Increment      1: Step Time =    1.000,"P-40-1",           446,          200.,           25.,            0.,NA,NA,"",   998.549E+03,   1.00060E+06,   1.00060E+06
C:/temp/Job-40.odb,Step-1,Increment      1: Step Time =    1.000,"P-40-1",           447,          200.,           15.,            0.,NA,NA,"",   1.00077E+06,   1.00032E+06,   1.00032E+06
C:/temp/Job-40.odb,Step-1,Increment      1: Step Time =    1.000,"P-40-1",           448,          200.,            5.,            0.,NA,NA,"",   1.00017E+06,   999.923E+03,   999.923E+03
C:/temp/Job-40.odb,Step-1,Increment      1: Step Time =    1.000,"P-40-1",           449,            5.,          200.,            0.,NA,NA,"",   1.60104E+06,   1.63829E+06,   1.63829E+06
C:/temp/Job-40.odb,Step-1,Increment      1: Step Time =    1.000,"P-40-1",           450,           15.,          200.,            0.,NA,NA,"",   1.29945E+06,   1.30538E+06,   1.30538E+06
C:/temp/Job-40.odb,Step-1,Increment      1: Step Time =    1.000,"P-40-1",           451,           25.,          200.,            0.,NA,NA,"",   1.21746E+06,   1.21901E+06,   1.21901E+06
C:/temp/Job-40.odb,Step-1,Increment      1: Step Time =    1.000,"P-40-1",           452,           35.,          200.,            0.,NA,NA,"",   1.17133E+06,   1.17170E+06,   1.17170E+06
C:/temp/Job-40.odb,Step-1,Increment      1: Step Time =    1.000,"P-40-1",           453,           45.,          200.,            0.,NA,NA,"",   1.13094E+06,   1.13082E+06,   1.13082E+06
C:/temp/Job-40.odb,Step-1,Increment      1: Step Time =    1.000,"P-40-1",           454,           55.,          200.,            0.,NA,NA,"",   1.08176E+06,   1.08156E+06,   1.08156E+06
C:/temp/Job-40.odb,Step-1,Increment      1: Step Time =    1.000,"P-40-1",           455,           65.,          200.,            0.,NA,NA,"",   1.02455E+06,   1.02433E+06,   1.02433E+06
C:/temp/Job-40.odb,Step-1,Increment      1: Step Time =    1.000,"P-40-1",           456,           75.,          200.,            0.,NA,NA,"",   962.290E+03,   962.332E+03,   962.332E+03
C:/temp/Job-40.odb,Step-1,Increment      1: Step Time =    1.000,"P-40-1",           457,           85.,          200.,            0.,NA,NA,"",   905.686E+03,   906.134E+03,   906.134E+03
C:/temp/Job-40.odb,Step-1,Increment      1: Step Time =    1.000,"P-40-1",           458,           95.,          200.,            0.,NA,NA,"",   867.291E+03,   868.098E+03,   868.098E+03
C:/temp/Job-40.odb,Step-1,Increment      1: Step Time =    1.000,"P-40-1",           459,          105.,          200.,            0.,NA,NA,"",   854.780E+03,   855.599E+03,   855.599E+03
C:/temp/Job-40.odb,Step-1,Increment      1: Step Time =    1.000,"P-40-1",           460,          115.,          200.,            0.,NA,NA,"",   868.124E+03,   868.633E+03,   868.633E+03
C:/temp/Job-40.odb,Step-1,Increment      1: Step Time =    1.000,"P-40-1",           461,          125.,          200.,            0.,NA,NA,"",   900.113E+03,   900.322E+03,   900.322E+03
C:/temp/Job-40.odb,Step-1,Increment      1: Step Time =    1.000,"P-40-1",           462,          135.,          200.,            0.,NA,NA,"",   939.802E+03,   939.953E+03,   939.953E+03
C:/temp/Job-40.odb,Step-1,Increment      1: Step Time =    1.000,"P-40-1",           463,          145.,          200.,            0.,NA,NA,"",   974.636E+03,   973.545E+03,   973.545E+03
C:/temp/Job-40.odb,Step-1,Increment      1: Step Time =    1.000,"P-40-1",           464,          155.,          200.,            0.,NA,NA,"",   993.146E+03,   992.708E+03,   992.708E+03
C:/temp/Job-40.odb,Step-1,Increment      1: Step Time =    1.000,"P-40-1",           465,          165.,          200.,            0.,NA,NA,"",   999.624E+03,   999.473E+03,   999.473E+03
C:/temp/Job-40.odb,Step-1,Increment      1: Step Time =    1.000,"P-40-1",           466,          175.,          200.,            0.,NA,NA,"",   999.672E+03,   999.652E+03,   999.652E+03
C:/temp/Job-40.odb,Step-1,Increment      1: Step Time =    1.000,"P-40-1",           467,          185.,          200.,            0.,NA,NA,"",   998.672E+03,   998.741E+03,   998.741E+03
C:/temp/Job-40.odb,Step-1,Increment      1: Step Time =    1.000,"P-40-1",           468,          195.,          200.,            0.,NA,NA,"",   999.546E+03,   999.508E+03,   999.508E+03
C:/temp/Job-40.odb,Step-1,Increment      1: Step Time =    1.000,"P-40-1",           469,            0.,            5.,            0.,NA,NA,"",   1.53444E+06,   1.63231E+06,   1.63231E+06
C:/temp/Job-40.odb,Step-1,Increment      1: Step Time =    1.000,"P-40-1",           470,            0.,           15.,            0.,NA,NA,"",   1.15588E+06,   1.27100E+06,   1.27100E+06
C:/temp/Job-40.odb,Step-1,Increment      1: Step Time =    1.000,"P-40-1",           471,            0.,           25.,            0.,NA,NA,"",   1.03123E+06,   1.14571E+06,   1.14571E+06
C:/temp/Job-40.odb,Step-1,Increment      1: Step Time =    1.000,"P-40-1",           472,            0.,           35.,            0.,NA,NA,"",   948.359E+03,   1.05991E+06,   1.05991E+06
C:/temp/Job-40.odb,Step-1,Increment      1: Step Time =    1.000,"P-40-1",           473,            0.,           45.,            0.,NA,NA,"",   882.147E+03,   989.420E+03,   989.420E+03
C:/temp/Job-40.odb,Step-1,Increment      1: Step Time =    1.000,"P-40-1",           474,            0.,           55.,            0.,NA,NA,"",   820.198E+03,   922.412E+03,   922.412E+03
C:/temp/Job-40.odb,Step-1,Increment      1: Step Time =    1.000,"P-40-1",           475,            0.,           65.,            0.,NA,NA,"",   760.673E+03,   857.356E+03,   857.356E+03
C:/temp/Job-40.odb,Step-1,Increment      1: Step Time =    1.000,"P-40-1",           476,            0.,           75.,            0.,NA,NA,"",   706.144E+03,   797.205E+03,   797.205E+03
C:/temp/Job-40.odb,Step-1,Increment      1: Step Time =    1.000,"P-40-1",           477,            0.,           85.,            0.,NA,NA,"",   662.584E+03,   749.353E+03,   749.353E+03
C:/temp/Job-40.odb,Step-1,Increment      1: Step Time =    1.000,"P-40-1",           478,            0.,           95.,            0.,NA,NA,"",   637.816E+03,   722.316E+03,   722.316E+03
C:/temp/Job-40.odb,Step-1,Increment      1: Step Time =    1.000,"P-40-1",           479,            0.,          105.,            0.,NA,NA,"",   638.420E+03,   722.939E+03,   722.939E+03
C:/temp/Job-40.odb,Step-1,Increment      1: Step Time =    1.000,"P-40-1",           480,            0.,          115.,            0.,NA,NA,"",   663.676E+03,   750.519E+03,   750.519E+03
C:/temp/Job-40.odb,Step-1,Increment      1: Step Time =    1.000,"P-40-1",           481,            0.,          125.,            0.,NA,NA,"",   707.607E+03,   798.649E+03,   798.649E+03
C:/temp/Job-40.odb,Step-1,Increment      1: Step Time =    1.000,"P-40-1",           482,            0.,          135.,            0.,NA,NA,"",   763.148E+03,   859.252E+03,   859.252E+03
C:/temp/Job-40.odb,Step-1,Increment      1: Step Time =    1.000,"P-40-1",           483,            0.,          145.,            0.,NA,NA,"",   825.741E+03,   926.906E+03,   926.906E+03
C:/temp/Job-40.odb,Step-1,Increment      1: Step Time =    1.000,"P-40-1",           484,            0.,          155.,            0.,NA,NA,"",   884.781E+03,   993.162E+03,   993.162E+03
C:/temp/Job-40.odb,Step-1,Increment      1: Step Time =    1.000,"P-40-1",           485,            0.,          165.,            0.,NA,NA,"",   948.387E+03,   1.06092E+06,   1.06092E+06
C:/temp/Job-40.odb,Step-1,Increment      1: Step Time =    1.000,"P-40-1",           486,            0.,          175.,            0.,NA,NA,"",   1.02969E+06,   1.14491E+06,   1.14491E+06
C:/temp/Job-40.odb,Step-1,Increment      1: Step Time =    1.000,"P-40-1",           487,            0.,          185.,            0.,NA,NA,"",   1.15564E+06,   1.27162E+06,   1.27162E+06
C:/temp/Job-40.odb,Step-1,Increment      1: Step Time =    1.000,"P-40-1",           488,            0.,          195.,            0.,NA,NA,"",   1.53239E+06,   1.63120E+06,   1.63120E+06
C:/temp/Job-40.odb,Step-1,Increment      1: Step Time =    1.000,"P-40-1",           489,       130.114,       101.675,            0.,NA,NA,"",   529.138E+03,  -475.799E+03,  -475.799E+03
C:/temp/Job-40.odb,Step-1,Increment      1: Step Time =    1.000,"P-40-1",           490,       69.3692,       100.622,            0.,NA,NA,"",   394.127E+03,  -294.578E+03,  -294.578E+03
C:/temp/Job-40.odb,Step-1,Increment      1: Step Time =    1.000,"P-40-1",           491,       72.5091,       90.5006,            0.,NA,NA,"",   551.634E+03,  -152.331E+03,  -152.331E+03
C:/temp/Job-40.odb,Step-1,Increment      1: Step Time =    1.000,"P-40-1",           492,       126.561,       109.905,            0.,NA,NA,"",   683.543E+03,  -203.163E+03,  -203.163E+03
C:/temp/Job-40.odb,Step-1,Increment      1: Step Time =    1.000,"P-40-1",           493,       127.979,       90.4959,            0.,NA,NA,"",   682.841E+03,  -15.8446E+03,  -15.8446E+03
C:/temp/Job-40.odb,Step-1,Increment      1: Step Time =    1.000,"P-40-1",           494,       73.3581,       109.592,            0.,NA,NA,"",   557.412E+03,  -169.168E+03,  -169.168E+03
C:/temp/Job-40.odb,Step-1,Increment      1: Step Time =    1.000,"P-40-1",           495,       194.968,       44.1833,            0.,NA,NA,"",   979.610E+03,   1.00443E+06,   1.00443E+06
C:/temp/Job-40.odb,Step-1,Increment      1: Step Time =    1.000,"P-40-1",           496,       5.23580,       40.5449,            0.,NA,NA,"",   929.768E+03,   1.03265E+06,   1.03265E+06
C:/temp/Job-40.odb,Step-1,Increment      1: Step Time =    1.000,"P-40-1",           497,       5.02643,       30.4783,            0.,NA,NA,"",   1.00311E+06,   1.10859E+06,   1.10859E+06
C:/temp/Job-40.odb,Step-1,Increment      1: Step Time =    1.000,"P-40-1",           498,       5.61585,       20.4706,            0.,NA,NA,"",   1.10813E+06,   1.20989E+06,   1.20989E+06
C:/temp/Job-40.odb,Step-1,Increment      1: Step Time =    1.000,"P-40-1",           499,       25.2687,       4.57745,            0.,NA,NA,"",   1.22200E+06,   1.22415E+06,   1.22415E+06
C:/temp/Job-40.odb,Step-1,Increment      1: Step Time =    1.000,"P-40-1",           500,       34.9923,       4.44275,            0.,NA,NA,"",   1.17546E+06,   1.17569E+06,   1.17569E+06
C:/temp/Job-40.odb,Step-1,Increment      1: Step Time =    1.000,"P-40-1",           501,       134.474,       194.710,            0.,NA,NA,"",   953.962E+03,   953.612E+03,   953.612E+03
C:/temp/Job-40.odb,Step-1,Increment      1: Step Time =    1.000,"P-40-1",           502,       124.627,       195.233,            0.,NA,NA,"",   919.140E+03,   919.570E+03,   919.570E+03
C:/temp/Job-40.odb,Step-1,Increment      1: Step Time =    1.000,"P-40-1",           503,       6.80078,       145.159,            0.,NA,NA,"",   845.193E+03,   940.029E+03,   940.029E+03
C:/temp/Job-40.odb,Step-1,Increment      1: Step Time =    1.000,"P-40-1",           504,       5.08827,       134.646,            0.,NA,NA,"",   768.865E+03,   862.363E+03,   862.363E+03
C:/temp/Job-40.odb,Step-1,Increment      1: Step Time =    1.000,"P-40-1",           505,       84.9414,       195.079,            0.,NA,NA,"",   930.217E+03,   931.438E+03,   931.438E+03
C:/temp/Job-40.odb,Step-1,Increment      1: Step Time =    1.000,"P-40-1",           506,       94.9103,       194.965,            0.,NA,NA,"",   894.965E+03,   897.277E+03,   897.277E+03
C:/temp/Job-40.odb,Step-1,Increment      1: Step Time =    1.000,"P-40-1",           507,       45.3947,       195.156,            0.,NA,NA,"",   1.13527E+06,   1.13451E+06,   1.13451E+06
C:/temp/Job-40.odb,Step-1,Increment      1: Step Time =    1.000,"P-40-1",           508,       35.3236,       194.608,            0.,NA,NA,"",   1.17755E+06,   1.17767E+06,   1.17767E+06
C:/temp/Job-40.odb,Step-1,Increment      1: Step Time =    1.000,"P-40-1",           509,       25.1750,       194.662,            0.,NA,NA,"",   1.22533E+06,   1.22801E+06,   1.22801E+06
C:/temp/Job-40.odb,Step-1,Increment      1: Step Time =    1.000,"P-40-1",           510,       5.25760,       10.1383,            0.,NA,NA,"",   1.30410E+06,   1.39181E+06,   1.39181E+06
C:/temp/Job-40.odb,Step-1,Increment      1: Step Time =    1.000,"P-40-1",           511,       15.2042,       5.04081,            0.,NA,NA,"",   1.30471E+06,   1.31452E+06,   1.31452E+06
C:/temp/Job-40.odb,Step-1,Increment      1: Step Time =    1.000,"P-40-1",           512,       44.5022,       4.79755,            0.,NA,NA,"",   1.13786E+06,   1.13695E+06,   1.13695E+06
C:/temp/Job-40.odb,Step-1,Increment      1: Step Time =    1.000,"P-40-1",           513,       55.0146,       6.96884,            0.,NA,NA,"",   1.09944E+06,   1.09709E+06,   1.09709E+06
C:/temp/Job-40.odb,Step-1,Increment      1: Step Time =    1.000,"P-40-1",           514,       65.5424,       5.13342,            0.,NA,NA,"",   1.03562E+06,   1.03516E+06,   1.03516E+06
C:/temp/Job-40.odb,Step-1,Increment      1: Step Time =    1.000,"P-40-1",           515,       75.3533,       4.73968,            0.,NA,NA,"",   977.920E+03,   978.016E+03,   978.016E+03
C:/temp/Job-40.odb,Step-1,Increment      1: Step Time =    1.000,"P-40-1",           516,       85.1830,       4.80438,            0.,NA,NA,"",   927.384E+03,   928.593E+03,   928.593E+03
C:/temp/Job-40.odb,Step-1,Increment      1: Step Time =    1.000,"P-40-1",           517,       95.1210,       4.89051,            0.,NA,NA,"",   892.509E+03,   894.669E+03,   894.669E+03
C:/temp/Job-40.odb,Step-1,Increment      1: Step Time =    1.000,"P-40-1",           518,       105.081,       4.91299,            0.,NA,NA,"",   880.502E+03,   882.893E+03,   882.893E+03
C:/temp/Job-40.odb,Step-1,Increment      1: Step Time =    1.000,"P-40-1",           519,       115.019,       4.90427,            0.,NA,NA,"",    892.83E+03,   894.335E+03,   894.335E+03
C:/temp/Job-40.odb,Step-1,Increment      1: Step Time =    1.000,"P-40-1",           520,       124.886,       4.85433,            0.,NA,NA,"",   920.722E+03,   920.953E+03,   920.953E+03
C:/temp/Job-40.odb,Step-1,Increment      1: Step Time =    1.000,"P-40-1",           521,       134.800,       4.71183,            0.,NA,NA,"",   952.314E+03,   951.666E+03,   951.666E+03
C:/temp/Job-40.odb,Step-1,Increment      1: Step Time =    1.000,"P-40-1",           522,       144.646,       4.58291,            0.,NA,NA,"",   979.163E+03,   978.140E+03,   978.140E+03
C:/temp/Job-40.odb,Step-1,Increment      1: Step Time =    1.000,"P-40-1",           523,       154.539,       4.95848,            0.,NA,NA,"",   997.106E+03,   995.973E+03,   995.973E+03
C:/temp/Job-40.odb,Step-1,Increment      1: Step Time =    1.000,"P-40-1",           524,       164.683,       5.35395,            0.,NA,NA,"",   1.00367E+06,   1.00286E+06,   1.00286E+06
C:/temp/Job-40.odb,Step-1,Increment      1: Step Time =    1.000,"P-40-1",           525,       174.841,       5.24024,            0.,NA,NA,"",   1.00255E+06,   1.00240E+06,   1.00240E+06
C:/temp/Job-40.odb,Step-1,Increment      1: Step Time =    1.000,"P-40-1",           526,       184.894,       5.18113,            0.,NA,NA,"",   1.00023E+06,   1.00047E+06,   1.00047E+06
C:/temp/Job-40.odb,Step-1,Increment      1: Step Time =    1.000,"P-40-1",           527,       194.986,       5.04447,            0.,NA,NA,"",   999.943E+03,   999.880E+03,   999.880E+03
C:/temp/Job-40.odb,Step-1,Increment      1: Step Time =    1.000,"P-40-1",           528,       195.127,       15.0184,            0.,NA,NA,"",   1.00064E+06,   1.00098E+06,   1.00098E+06
C:/temp/Job-40.odb,Step-1,Increment      1: Step Time =    1.000,"P-40-1",           529,       195.424,       24.7953,            0.,NA,NA,"",   998.572E+03,   1.00176E+06,   1.00176E+06
C:/temp/Job-40.odb,Step-1,Increment      1: Step Time =    1.000,"P-40-1",           530,       195.529,       34.5012,            0.,NA,NA,"",   991.644E+03,   1.00246E+06,   1.00246E+06
C:/temp/Job-40.odb,Step-1,Increment      1: Step Time =    1.000,"P-40-1",           531,       192.477,       54.7684,            0.,NA,NA,"",   965.846E+03,   1.00866E+06,   1.00866E+06
C:/temp/Job-40.odb,Step-1,Increment      1: Step Time =    1.000,"P-40-1",           532,       194.713,       65.5242,            0.,NA,NA,"",   929.961E+03,   1.00155E+06,   1.00155E+06
C:/temp/Job-40.odb,Step-1,Increment      1: Step Time =    1.000,"P-40-1",           533,       195.254,       75.3556,            0.,NA,NA,"",   905.617E+03,   999.579E+03,   999.579E+03
C:/temp/Job-40.odb,Step-1,Increment      1: Step Time =    1.000,"P-40-1",           534,       195.233,       85.1523,            0.,NA,NA,"",   887.949E+03,   996.503E+03,   996.503E+03
C:/temp/Job-40.odb,Step-1,Increment      1: Step Time =    1.000,"P-40-1",           535,       195.122,       95.0163,            0.,NA,NA,"",    878.05E+03,   993.360E+03,   993.360E+03
C:/temp/Job-40.odb,Step-1,Increment      1: Step Time =    1.000,"P-40-1",           536,       195.042,       104.935,            0.,NA,NA,"",   878.284E+03,   993.279E+03,   993.279E+03
C:/temp/Job-40.odb,Step-1,Increment      1: Step Time =    1.000,"P-40-1",           537,       195.044,       114.863,            0.,NA,NA,"",   888.668E+03,   996.377E+03,   996.377E+03
C:/temp/Job-40.odb,Step-1,Increment      1: Step Time =    1.000,"P-40-1",           538,       195.175,       124.820,            0.,NA,NA,"",   907.097E+03,   1.00002E+06,   1.00002E+06
C:/temp/Job-40.odb,Step-1,Increment      1: Step Time =    1.000,"P-40-1",           539,       195.344,       134.764,            0.,NA,NA,"",   930.855E+03,   1.00257E+06,   1.00257E+06
C:/temp/Job-40.odb,Step-1,Increment      1: Step Time =    1.000,"P-40-1",           540,       195.463,       144.610,            0.,NA,NA,"",    955.18E+03,   1.00333E+06,   1.00333E+06
C:/temp/Job-40.odb,Step-1,Increment      1: Step Time =    1.000,"P-40-1",           541,       194.951,       194.977,            0.,NA,NA,"",   999.948E+03,   999.885E+03,   999.885E+03
C:/temp/Job-40.odb,Step-1,Increment      1: Step Time =    1.000,"P-40-1",           542,       184.978,       195.115,            0.,NA,NA,"",   1.00008E+06,   1.00029E+06,   1.00029E+06
C:/temp/Job-40.odb,Step-1,Increment      1: Step Time =    1.000,"P-40-1",           543,       175.206,       195.408,            0.,NA,NA,"",   1.00193E+06,   1.00186E+06,   1.00186E+06
C:/temp/Job-40.odb,Step-1,Increment      1: Step Time =    1.000,"P-40-1",           544,       165.514,       195.512,            0.,NA,NA,"",   1.00263E+06,   1.00216E+06,   1.00216E+06
C:/temp/Job-40.odb,Step-1,Increment      1: Step Time =    1.000,"P-40-1",           545,       155.832,       194.934,            0.,NA,NA,"",   998.243E+03,   997.209E+03,   997.209E+03
C:/temp/Job-40.odb,Step-1,Increment      1: Step Time =    1.000,"P-40-1",           546,       145.245,       192.445,            0.,NA,NA,"",   993.108E+03,   990.471E+03,   990.471E+03
C:/temp/Job-40.odb,Step-1,Increment      1: Step Time =    1.000,"P-40-1",           547,       114.773,       195.150,            0.,NA,NA,"",   892.332E+03,   893.865E+03,   893.865E+03
C:/temp/Job-40.odb,Step-1,Increment      1: Step Time =    1.000,"P-40-1",           548,       104.867,       194.996,            0.,NA,NA,"",   882.359E+03,   884.762E+03,   884.762E+03
C:/temp/Job-40.odb,Step-1,Increment      1: Step Time =    1.000,"P-40-1",           549,       74.9977,       195.222,            0.,NA,NA,"",   981.321E+03,   981.254E+03,   981.254E+03
C:/temp/Job-40.odb,Step-1,Increment      1: Step Time =    1.000,"P-40-1",           550,       65.0638,       195.325,            0.,NA,NA,"",   1.03767E+06,   1.03676E+06,   1.03676E+06
C:/temp/Job-40.odb,Step-1,Increment      1: Step Time =    1.000,"P-40-1",           551,       55.2134,       195.420,            0.,NA,NA,"",   1.08937E+06,   1.08837E+06,   1.08837E+06
C:/temp/Job-40.odb,Step-1,Increment      1: Step Time =    1.000,"P-40-1",           552,       15.1596,       194.788,            0.,NA,NA,"",   1.30575E+06,   1.31597E+06,   1.31597E+06
C:/temp/Job-40.odb,Step-1,Increment      1: Step Time =    1.000,"P-40-1",           553,       5.06914,       194.929,            0.,NA,NA,"",   1.49567E+06,   1.55418E+06,   1.55418E+06
C:/temp/Job-40.odb,Step-1,Increment      1: Step Time =    1.000,"P-40-1",           554,       5.16183,       184.838,            0.,NA,NA,"",   1.17885E+06,   1.27909E+06,   1.27909E+06
C:/temp/Job-40.odb,Step-1,Increment      1: Step Time =    1.000,"P-40-1",           555,       4.94572,       174.790,            0.,NA,NA,"",   1.04770E+06,   1.15352E+06,   1.15352E+06
C:/temp/Job-40.odb,Step-1,Increment      1: Step Time =    1.000,"P-40-1",           556,       4.57685,       165.004,            0.,NA,NA,"",   963.972E+03,   1.07034E+06,   1.07034E+06
C:/temp/Job-40.odb,Step-1,Increment      1: Step Time =    1.000,"P-40-1",           557,       4.61342,       155.467,            0.,NA,NA,"",   899.505E+03,   1.00303E+06,   1.00303E+06
C:/temp/Job-40.odb,Step-1,Increment      1: Step Time =    1.000,"P-40-1",           558,       4.78382,       124.828,            0.,NA,NA,"",   710.086E+03,   799.956E+03,   799.956E+03
C:/temp/Job-40.odb,Step-1,Increment      1: Step Time =    1.000,"P-40-1",           559,       4.87920,       115.001,            0.,NA,NA,"",   663.020E+03,   749.714E+03,   749.714E+03
C:/temp/Job-40.odb,Step-1,Increment      1: Step Time =    1.000,"P-40-1",           560,       4.97411,       105.114,            0.,NA,NA,"",   635.571E+03,   720.468E+03,   720.468E+03
C:/temp/Job-40.odb,Step-1,Increment      1: Step Time =    1.000,"P-40-1",           561,       5.02939,       95.1770,            0.,NA,NA,"",   634.548E+03,   719.401E+03,   719.401E+03
C:/temp/Job-40.odb,Step-1,Increment      1: Step Time =    1.000,"P-40-1",           562,       5.02627,       85.1551,            0.,NA,NA,"",   661.546E+03,   748.162E+03,   748.162E+03
C:/temp/Job-40.odb,Step-1,Increment      1: Step Time =    1.000,"P-40-1",           563,       4.64280,       75.2223,            0.,NA,NA,"",   708.783E+03,   798.683E+03,   798.683E+03
C:/temp/Job-40.odb,Step-1,Increment      1: Step Time =    1.000,"P-40-1",           564,       4.33191,       65.4137,            0.,NA,NA,"",   765.926E+03,   860.333E+03,   860.333E+03
C:/temp/Job-40.odb,Step-1,Increment      1: Step Time =    1.000,"P-40-1",           565,       4.51345,       55.6130,            0.,NA,NA,"",   827.828E+03,   926.413E+03,   926.413E+03
C:/temp/Job-40.odb,Step-1,Increment      1: Step Time =    1.000,"P-40-1",           566,       195.084,       154.502,            0.,NA,NA,"",   977.046E+03,   1.00388E+06,   1.00388E+06
C:/temp/Job-40.odb,Step-1,Increment      1: Step Time =    1.000,"P-40-1",           567,       194.667,       164.652,            0.,NA,NA,"",   991.816E+03,   1.00374E+06,   1.00374E+06
C:/temp/Job-40.odb,Step-1,Increment      1: Step Time =    1.000,"P-40-1",           568,       194.763,       174.819,            0.,NA,NA,"",   998.742E+03,   1.00242E+06,   1.00242E+06
C:/temp/Job-40.odb,Step-1,Increment      1: Step Time =    1.000,"P-40-1",           569,       194.814,       184.880,            0.,NA,NA,"",   1.00075E+06,   1.00121E+06,   1.00121E+06
C:/temp/Job-40.odb,Step-1,Increment      1: Step Time =    1.000,"P-40-1",           570,       189.952,       5.11573,            0.,NA,NA,"",   999.766E+03,   999.963E+03,   999.963E+03
C:/temp/Job-40.odb,Step-1,Increment      1: Step Time =    1.000,"P-40-1",           571,       179.863,       5.23022,            0.,NA,NA,"",   1.00129E+06,   1.00139E+06,   1.00139E+06
C:/temp/Job-40.odb,Step-1,Increment      1: Step Time =    1.000,"P-40-1",           572,       169.800,       5.28488,            0.,NA,NA,"",   1.00355E+06,   1.00307E+06,   1.00307E+06
C:/temp/Job-40.odb,Step-1,Increment      1: Step Time =    1.000,"P-40-1",           573,       159.558,       5.38414,            0.,NA,NA,"",   1.00189E+06,   1.00082E+06,   1.00082E+06
C:/temp/Job-40.odb,Step-1,Increment      1: Step Time =    1.000,"P-40-1",           574,       149.542,       4.66962,            0.,NA,NA,"",   989.302E+03,   988.226E+03,   988.226E+03
C:/temp/Job-40.odb,Step-1,Increment      1: Step Time =    1.000,"P-40-1",           575,       139.741,       4.62729,            0.,NA,NA,"",   966.781E+03,   965.869E+03,   965.869E+03
C:/temp/Job-40.odb,Step-1,Increment      1: Step Time =    1.000,"P-40-1",           576,       129.841,       4.79358,            0.,NA,NA,"",   936.641E+03,   936.370E+03,   936.370E+03
C:/temp/Job-40.odb,Step-1,Increment      1: Step Time =    1.000,"P-40-1",           577,       119.952,       4.88513,            0.,NA,NA,"",   905.622E+03,   906.454E+03,   906.454E+03
C:/temp/Job-40.odb,Step-1,Increment      1: Step Time =    1.000,"P-40-1",           578,       110.062,       4.90730,            0.,NA,NA,"",   883.965E+03,   886.059E+03,   886.059E+03
C:/temp/Job-40.odb,Step-1,Increment      1: Step Time =    1.000,"P-40-1",           579,       100.101,       4.90185,            0.,NA,NA,"",   883.350E+03,   885.770E+03,   885.770E+03
C:/temp/Job-40.odb,Step-1,Increment      1: Step Time =    1.000,"P-40-1",           580,       90.1434,       4.85154,            0.,NA,NA,"",   907.423E+03,   909.168E+03,   909.168E+03
C:/temp/Job-40.odb,Step-1,Increment      1: Step Time =    1.000,"P-40-1",           581,       80.2505,       4.75641,            0.,NA,NA,"",   951.302E+03,   951.878E+03,   951.878E+03
C:/temp/Job-40.odb,Step-1,Increment      1: Step Time =    1.000,"P-40-1",           582,       70.4607,       4.83819,            0.,NA,NA,"",   1.00644E+06,   1.00618E+06,   1.00618E+06
C:/temp/Job-40.odb,Step-1,Increment      1: Step Time =    1.000,"P-40-1",           583,       60.5582,       5.75969,            0.,NA,NA,"",   1.06573E+06,   1.06472E+06,   1.06472E+06
C:/temp/Job-40.odb,Step-1,Increment      1: Step Time =    1.000,"P-40-1",           584,       49.3642,       5.34735,            0.,NA,NA,"",   1.11905E+06,   1.11722E+06,   1.11722E+06
C:/temp/Job-40.odb,Step-1,Increment      1: Step Time =    1.000,"P-40-1",           585,       39.7763,       4.56929,            0.,NA,NA,"",   1.15651E+06,   1.15610E+06,   1.15610E+06
C:/temp/Job-40.odb,Step-1,Increment      1: Step Time =    1.000,"P-40-1",           586,       30.1684,       4.38891,            0.,NA,NA,"",   1.19652E+06,   1.19742E+06,   1.19742E+06
C:/temp/Job-40.odb,Step-1,Increment      1: Step Time =    1.000,"P-40-1",           587,       20.2726,       4.94116,            0.,NA,NA,"",   1.25729E+06,   1.26179E+06,   1.26179E+06
C:/temp/Job-40.odb,Step-1,Increment      1: Step Time =    1.000,"P-40-1",           588,       10.1584,       5.06196,            0.,NA,NA,"",   1.39492E+06,   1.41042E+06,   1.41042E+06
C:/temp/Job-40.odb,Step-1,Increment      1: Step Time =    1.000,"P-40-1",           589,       194.879,       189.942,            0.,NA,NA,"",   1.00059E+06,   1.00060E+06,   1.00060E+06
C:/temp/Job-40.odb,Step-1,Increment      1: Step Time =    1.000,"P-40-1",           590,       194.768,       179.845,            0.,NA,NA,"",   1.00019E+06,   1.00179E+06,   1.00179E+06
C:/temp/Job-40.odb,Step-1,Increment      1: Step Time =    1.000,"P-40-1",           591,       194.727,       169.771,            0.,NA,NA,"",   996.140E+03,   1.00314E+06,   1.00314E+06
C:/temp/Job-40.odb,Step-1,Increment      1: Step Time =    1.000,"P-40-1",           592,       194.652,       159.513,            0.,NA,NA,"",   985.594E+03,   1.00405E+06,   1.00405E+06
C:/temp/Job-40.odb,Step-1,Increment      1: Step Time =    1.000,"P-40-1",           593,       195.376,       149.501,            0.,NA,NA,"",   966.475E+03,   1.00346E+06,   1.00346E+06
C:/temp/Job-40.odb,Step-1,Increment      1: Step Time =    1.000,"P-40-1",           594,       195.424,       139.708,            0.,NA,NA,"",   943.254E+03,   1.00316E+06,   1.00316E+06
C:/temp/Job-40.odb,Step-1,Increment      1: Step Time =    1.000,"P-40-1",           595,       195.260,       129.795,            0.,NA,NA,"",   918.617E+03,   1.00153E+06,   1.00153E+06
C:/temp/Job-40.odb,Step-1,Increment      1: Step Time =    1.000,"P-40-1",           596,       195.101,       119.844,            0.,NA,NA,"",   896.978E+03,   998.247E+03,   998.247E+03
C:/temp/Job-40.odb,Step-1,Increment      1: Step Time =    1.000,"P-40-1",           597,       195.030,       109.894,            0.,NA,NA,"",   882.344E+03,   994.601E+03,   994.601E+03
C:/temp/Job-40.odb,Step-1,Increment      1: Step Time =    1.000,"P-40-1",           598,       195.080,       99.9776,            0.,NA,NA,"",   876.741E+03,   992.734E+03,   992.734E+03
C:/temp/Job-40.odb,Step-1,Increment      1: Step Time =    1.000,"P-40-1",           599,       195.181,       90.0734,            0.,NA,NA,"",   881.897E+03,   994.757E+03,   994.757E+03
C:/temp/Job-40.odb,Step-1,Increment      1: Step Time =    1.000,"P-40-1",           600,       195.273,       80.2494,            0.,NA,NA,"",   895.951E+03,   998.255E+03,   998.255E+03
C:/temp/Job-40.odb,Step-1,Increment      1: Step Time =    1.000,"P-40-1",           601,       195.100,       70.4566,            0.,NA,NA,"",   917.137E+03,   1.00073E+06,   1.00073E+06
C:/temp/Job-40.odb,Step-1,Increment      1: Step Time =    1.000,"P-40-1",           602,       193.938,       60.4915,            0.,NA,NA,"",   945.192E+03,   1.00353E+06,   1.00353E+06
C:/temp/Job-40.odb,Step-1,Increment      1: Step Time =    1.000,"P-40-1",           603,       194.128,       49.1541,            0.,NA,NA,"",   973.093E+03,   1.00683E+06,   1.00683E+06
C:/temp/Job-40.odb,Step-1,Increment      1: Step Time =    1.000,"P-40-1",           604,       195.388,       39.3094,            0.,NA,NA,"",   986.009E+03,   1.00299E+06,   1.00299E+06
C:/temp/Job-40.odb,Step-1,Increment      1: Step Time =    1.000,"P-40-1",           605,       195.521,       29.6777,            0.,NA,NA,"",   995.771E+03,   1.00205E+06,   1.00205E+06
C:/temp/Job-40.odb,Step-1,Increment      1: Step Time =    1.000,"P-40-1",           606,       195.281,       19.9212,            0.,NA,NA,"",   1.00009E+06,   1.00139E+06,   1.00139E+06
C:/temp/Job-40.odb,Step-1,Increment      1: Step Time =    1.000,"P-40-1",           607,       195.028,       10.0572,            0.,NA,NA,"",   1.00053E+06,   1.00051E+06,   1.00051E+06
C:/temp/Job-40.odb,Step-1,Increment      1: Step Time =    1.000,"P-40-1",           608,       10.0991,       194.873,            0.,NA,NA,"",   1.39491E+06,   1.41106E+06,   1.41106E+06
C:/temp/Job-40.odb,Step-1,Increment      1: Step Time =    1.000,"P-40-1",           609,       20.1817,       194.686,            0.,NA,NA,"",   1.25981E+06,   1.26470E+06,   1.26470E+06
C:/temp/Job-40.odb,Step-1,Increment      1: Step Time =    1.000,"P-40-1",           610,       30.2144,       194.638,            0.,NA,NA,"",   1.19982E+06,   1.20102E+06,   1.20102E+06
C:/temp/Job-40.odb,Step-1,Increment      1: Step Time =    1.000,"P-40-1",           611,       40.4171,       194.655,            0.,NA,NA,"",   1.15688E+06,   1.15643E+06,   1.15643E+06
C:/temp/Job-40.odb,Step-1,Increment      1: Step Time =    1.000,"P-40-1",           612,       50.3516,       195.394,            0.,NA,NA,"",   1.11253E+06,   1.11166E+06,   1.11166E+06
C:/temp/Job-40.odb,Step-1,Increment      1: Step Time =    1.000,"P-40-1",           613,       60.1109,       195.375,            0.,NA,NA,"",   1.06457E+06,   1.06349E+06,   1.06349E+06
C:/temp/Job-40.odb,Step-1,Increment      1: Step Time =    1.000,"P-40-1",           614,       70.0331,       195.282,            0.,NA,NA,"",   1.00950E+06,   1.00894E+06,   1.00894E+06
C:/temp/Job-40.odb,Step-1,Increment      1: Step Time =    1.000,"P-40-1",           615,       79.9684,       195.157,            0.,NA,NA,"",   954.439E+03,   954.995E+03,   954.995E+03
C:/temp/Job-40.odb,Step-1,Increment      1: Step Time =    1.000,"P-40-1",           616,       89.9223,       195.011,            0.,NA,NA,"",   910.049E+03,   911.905E+03,   911.905E+03
C:/temp/Job-40.odb,Step-1,Increment      1: Step Time =    1.000,"P-40-1",           617,       99.8979,       194.960,            0.,NA,NA,"",   885.655E+03,   888.160E+03,   888.160E+03
C:/temp/Job-40.odb,Step-1,Increment      1: Step Time =    1.000,"P-40-1",           618,       109.825,       195.065,            0.,NA,NA,"",   884.794E+03,   886.842E+03,   886.842E+03
C:/temp/Job-40.odb,Step-1,Increment      1: Step Time =    1.000,"P-40-1",           619,       119.710,       195.220,            0.,NA,NA,"",   904.168E+03,   905.117E+03,   905.117E+03
C:/temp/Job-40.odb,Step-1,Increment      1: Step Time =    1.000,"P-40-1",           620,       129.537,       195.093,            0.,NA,NA,"",   936.173E+03,   936.182E+03,   936.182E+03
C:/temp/Job-40.odb,Step-1,Increment      1: Step Time =    1.000,"P-40-1",           621,       139.509,       193.927,            0.,NA,NA,"",   972.258E+03,   971.121E+03,   971.121E+03
C:/temp/Job-40.odb,Step-1,Increment      1: Step Time =    1.000,"P-40-1",           622,       150.859,       194.086,            0.,NA,NA,"",   994.781E+03,   992.919E+03,   992.919E+03
C:/temp/Job-40.odb,Step-1,Increment      1: Step Time =    1.000,"P-40-1",           623,       160.704,       195.358,            0.,NA,NA,"",   1.00122E+06,   1.00055E+06,   1.00055E+06
C:/temp/Job-40.odb,Step-1,Increment      1: Step Time =    1.000,"P-40-1",           624,       170.330,       195.506,            0.,NA,NA,"",   1.00267E+06,   1.00241E+06,   1.00241E+06
C:/temp/Job-40.odb,Step-1,Increment      1: Step Time =    1.000,"P-40-1",           625,       180.078,       195.267,            0.,NA,NA,"",   1.00092E+06,   1.00103E+06,   1.00103E+06
C:/temp/Job-40.odb,Step-1,Increment      1: Step Time =    1.000,"P-40-1",           626,       189.938,       195.018,            0.,NA,NA,"",   999.732E+03,   999.913E+03,   999.913E+03
C:/temp/Job-40.odb,Step-1,Increment      1: Step Time =    1.000,"P-40-1",           627,       5.46755,       15.2963,            0.,NA,NA,"",   1.17989E+06,   1.27834E+06,   1.27834E+06
C:/temp/Job-40.odb,Step-1,Increment      1: Step Time =    1.000,"P-40-1",           628,       5.28093,       25.4623,            0.,NA,NA,"",   1.04886E+06,   1.15336E+06,   1.15336E+06
C:/temp/Job-40.odb,Step-1,Increment      1: Step Time =    1.000,"P-40-1",           629,       5.04786,       35.4997,            0.,NA,NA,"",   964.137E+03,   1.06889E+06,   1.06889E+06
C:/temp/Job-40.odb,Step-1,Increment      1: Step Time =    1.000,"P-40-1",           630,       5.37189,       45.6344,            0.,NA,NA,"",   896.139E+03,   997.297E+03,   997.297E+03
C:/temp/Job-40.odb,Step-1,Increment      1: Step Time =    1.000,"P-40-1",           631,       4.92034,       50.6288,            0.,NA,NA,"",   861.958E+03,   961.879E+03,   961.879E+03
C:/temp/Job-40.odb,Step-1,Increment      1: Step Time =    1.000,"P-40-1",           632,       4.33449,       60.5242,            0.,NA,NA,"",   796.286E+03,   892.966E+03,   892.966E+03
C:/temp/Job-40.odb,Step-1,Increment      1: Step Time =    1.000,"P-40-1",           633,       4.44847,       70.3104,            0.,NA,NA,"",   736.702E+03,   828.773E+03,   828.773E+03
C:/temp/Job-40.odb,Step-1,Increment      1: Step Time =    1.000,"P-40-1",           634,       4.86163,       80.1708,            0.,NA,NA,"",   683.096E+03,   771.170E+03,   771.170E+03
C:/temp/Job-40.odb,Step-1,Increment      1: Step Time =    1.000,"P-40-1",           635,       5.05289,       90.1621,            0.,NA,NA,"",   644.928E+03,   730.456E+03,   730.456E+03
C:/temp/Job-40.odb,Step-1,Increment      1: Step Time =    1.000,"P-40-1",           636,       4.99788,       100.158,            0.,NA,NA,"",   631.488E+03,   716.127E+03,   716.127E+03
C:/temp/Job-40.odb,Step-1,Increment      1: Step Time =    1.000,"P-40-1",           637,       4.93259,       110.063,            0.,NA,NA,"",   646.341E+03,   731.936E+03,   731.936E+03
C:/temp/Job-40.odb,Step-1,Increment      1: Step Time =    1.000,"P-40-1",           638,       4.81418,       119.925,            0.,NA,NA,"",   684.633E+03,   772.780E+03,   772.780E+03
C:/temp/Job-40.odb,Step-1,Increment      1: Step Time =    1.000,"P-40-1",           639,       4.84908,       129.730,            0.,NA,NA,"",   738.456E+03,   830.187E+03,   830.187E+03
C:/temp/Job-40.odb,Step-1,Increment      1: Step Time =    1.000,"P-40-1",           640,       5.65172,       139.650,            0.,NA,NA,"",   802.464E+03,   897.219E+03,   897.219E+03
C:/temp/Job-40.odb,Step-1,Increment      1: Step Time =    1.000,"P-40-1",           641,       5.19439,       150.595,            0.,NA,NA,"",   871.845E+03,   972.186E+03,   972.186E+03
C:/temp/Job-40.odb,Step-1,Increment      1: Step Time =    1.000,"P-40-1",           642,       4.49809,       160.229,            0.,NA,NA,"",   930.274E+03,   1.03556E+06,   1.03556E+06
C:/temp/Job-40.odb,Step-1,Increment      1: Step Time =    1.000,"P-40-1",           643,       4.71779,       169.857,            0.,NA,NA,"",   1.00249E+06,   1.10909E+06,   1.10909E+06
C:/temp/Job-40.odb,Step-1,Increment      1: Step Time =    1.000,"P-40-1",           644,       5.21090,       179.781,            0.,NA,NA,"",   1.10750E+06,   1.21098E+06,   1.21098E+06
C:/temp/Job-40.odb,Step-1,Increment      1: Step Time =    1.000,"P-40-1",           645,       5.09984,       189.897,            0.,NA,NA,"",   1.30227E+06,   1.39154E+06,   1.39154E+06
C:/temp/Job-40.odb,Step-1,Increment      1: Step Time =    1.000,"P-40-1",           646,       96.8616,       130.165,            0.,NA,NA,"",   1.98016E+06,   2.11719E+06,   2.11719E+06
C:/temp/Job-40.odb,Step-1,Increment      1: Step Time =    1.000,"P-40-1",           647,       79.0574,       118.574,            0.,NA,NA,"",   980.517E+03,   918.142E+03,   918.142E+03
C:/temp/Job-40.odb,Step-1,Increment      1: Step Time =    1.000,"P-40-1",           648,       104.172,       69.8351,            0.,NA,NA,"",   1.99829E+06,   2.13722E+06,   2.13722E+06
C:/temp/Job-40.odb,Step-1,Increment      1: Step Time =    1.000,"P-40-1",           649,       78.6523,       80.5660,            0.,NA,NA,"",   1.05788E+06,   982.031E+03,   982.031E+03
C:/temp/Job-40.odb,Step-1,Increment      1: Step Time =    1.000,"P-40-1",           650,       122.149,       81.4540,            0.,NA,NA,"",   1.12811E+06,   1.02679E+06,   1.02679E+06
C:/temp/Job-40.odb,Step-1,Increment      1: Step Time =    1.000,"P-40-1",           651,       101.125,       129.078,            0.,NA,NA,"",   2.17662E+06,   2.30190E+06,   2.30190E+06
C:/temp/Job-40.odb,Step-1,Increment      1: Step Time =    1.000,"P-40-1",           652,       92.3820,       70.4407,            0.,NA,NA,"",   1.94902E+06,   2.05846E+06,   2.05846E+06
C:/temp/Job-40.odb,Step-1,Increment      1: Step Time =    1.000,"P-40-1",           653,       96.9506,       68.8066,            0.,NA,NA,"",   1.92427E+06,   2.06605E+06,   2.06605E+06
C:/temp/Job-40.odb,Step-1,Increment      1: Step Time =    1.000,"P-40-1",           654,       121.261,       118.902,            0.,NA,NA,"",   1.12138E+06,   1.03839E+06,   1.03839E+06
C:/temp/Job-40.odb,Step-1,Increment      1: Step Time =    1.000,"P-40-1",           655,       109.030,       126.826,            0.,NA,NA,"",   2.09816E+06,   2.19399E+06,   2.19399E+06
C:/temp/Job-40.odb,Step-1,Increment      1: Step Time =    1.000,"P-40-1",           656,       119.274,       79.1299,            0.,NA,NA,"",   1.34323E+06,   1.31537E+06,   1.31537E+06
C:/temp/Job-40.odb,Step-1,Increment      1: Step Time =    1.000,"P-40-1",           657,       75.7469,       76.7720,            0.,NA,NA,"",   1.32894E+06,   1.20593E+06,   1.20593E+06
C:/temp/Job-40.odb,Step-1,Increment      1: Step Time =    1.000,"P-40-1",           658,       125.341,       122.105,            0.,NA,NA,"",   1.37517E+06,   1.21326E+06,   1.21326E+06
C:/temp/Job-40.odb,Step-1,Increment      1: Step Time =    1.000,"P-40-1",           659,       125.279,       77.3900,            0.,NA,NA,"",   1.36310E+06,   1.20672E+06,   1.20672E+06
C:/temp/Job-40.odb,Step-1,Increment      1: Step Time =    1.000,"P-40-1",           660,       75.4215,       121.407,            0.,NA,NA,"",   1.22003E+06,   1.09379E+06,   1.09379E+06
C:/temp/Job-40.odb,Step-1,Increment      1: Step Time =    1.000,"P-40-1",           661,       133.219,       93.2349,            0.,NA,NA,"",    537.77E+03,   189.040E+03,   189.040E+03
C:/temp/Job-40.odb,Step-1,Increment      1: Step Time =    1.000,"P-40-1",           662,       66.3645,       95.8394,            0.,NA,NA,"",   370.547E+03,   21.2962E+03,   21.2962E+03
C:/temp/Job-40.odb,Step-1,Increment      1: Step Time =    1.000,"P-40-1",           663,       132.643,       108.451,            0.,NA,NA,"",   642.162E+03,   83.4287E+03,   83.4287E+03
C:/temp/Job-40.odb,Step-1,Increment      1: Step Time =    1.000,"P-40-1",           664,       66.9179,       107.801,            0.,NA,NA,"",   493.671E+03,   82.4752E+03,   82.4752E+03
C:/temp/Job-40.odb,Step-1,Increment      1: Step Time =    1.000,"P-40-1",           665,       139.527,       9.31395,            0.,NA,NA,"",   991.024E+03,   988.441E+03,   988.441E+03
C:/temp/Job-40.odb,Step-1,Increment      1: Step Time =    1.000,"P-40-1",           666,       129.706,       9.66543,            0.,NA,NA,"",   971.085E+03,   970.459E+03,   970.459E+03
C:/temp/Job-40.odb,Step-1,Increment      1: Step Time =    1.000,"P-40-1",           667,       119.889,       9.86642,            0.,NA,NA,"",   948.851E+03,   951.297E+03,   951.297E+03
C:/temp/Job-40.odb,Step-1,Increment      1: Step Time =    1.000,"P-40-1",           668,       110.114,       9.82551,            0.,NA,NA,"",   931.100E+03,   937.045E+03,   937.045E+03
C:/temp/Job-40.odb,Step-1,Increment      1: Step Time =    1.000,"P-40-1",           669,       100.193,       9.79587,            0.,NA,NA,"",   931.964E+03,   938.676E+03,   938.676E+03
C:/temp/Job-40.odb,Step-1,Increment      1: Step Time =    1.000,"P-40-1",           670,       90.2581,       9.72489,            0.,NA,NA,"",   953.616E+03,   958.694E+03,   958.694E+03
C:/temp/Job-40.odb,Step-1,Increment      1: Step Time =    1.000,"P-40-1",           671,       80.4745,       9.57272,            0.,NA,NA,"",   991.348E+03,   993.111E+03,   993.111E+03
C:/temp/Job-40.odb,Step-1,Increment      1: Step Time =    1.000,"P-40-1",           672,       71.0384,       9.59101,            0.,NA,NA,"",   1.03631E+06,   1.03541E+06,   1.03541E+06
C:/temp/Job-40.odb,Step-1,Increment      1: Step Time =    1.000,"P-40-1",           673,       62.0483,       10.9778,            0.,NA,NA,"",   1.08701E+06,   1.08365E+06,   1.08365E+06
C:/temp/Job-40.odb,Step-1,Increment      1: Step Time =    1.000,"P-40-1",           674,       190.800,       139.442,            0.,NA,NA,"",   957.350E+03,   1.00888E+06,   1.00888E+06
C:/temp/Job-40.odb,Step-1,Increment      1: Step Time =    1.000,"P-40-1",           675,       190.487,       129.615,            0.,NA,NA,"",   933.555E+03,   1.00402E+06,   1.00402E+06
C:/temp/Job-40.odb,Step-1,Increment      1: Step Time =    1.000,"P-40-1",           676,       190.160,       119.702,            0.,NA,NA,"",   907.614E+03,    994.44E+03,    994.44E+03
C:/temp/Job-40.odb,Step-1,Increment      1: Step Time =    1.000,"P-40-1",           677,       189.997,       109.745,            0.,NA,NA,"",   886.475E+03,   984.189E+03,   984.189E+03
C:/temp/Job-40.odb,Step-1,Increment      1: Step Time =    1.000,"P-40-1",           678,       190.125,       99.8981,            0.,NA,NA,"",   877.107E+03,   979.071E+03,   979.071E+03
C:/temp/Job-40.odb,Step-1,Increment      1: Step Time =    1.000,"P-40-1",           679,       190.294,       90.0885,            0.,NA,NA,"",   886.216E+03,   984.812E+03,   984.812E+03
C:/temp/Job-40.odb,Step-1,Increment      1: Step Time =    1.000,"P-40-1",           680,       190.477,       80.4723,            0.,NA,NA,"",   906.182E+03,   994.548E+03,   994.548E+03
C:/temp/Job-40.odb,Step-1,Increment      1: Step Time =    1.000,"P-40-1",           681,       190.330,       71.0771,            0.,NA,NA,"",   930.784E+03,   1.00256E+06,   1.00256E+06
C:/temp/Job-40.odb,Step-1,Increment      1: Step Time =    1.000,"P-40-1",           682,       188.622,       62.0756,            0.,NA,NA,"",   961.797E+03,   1.01126E+06,   1.01126E+06
C:/temp/Job-40.odb,Step-1,Increment      1: Step Time =    1.000,"P-40-1",           683,       60.1815,       190.678,            0.,NA,NA,"",   1.08726E+06,   1.08426E+06,   1.08426E+06
C:/temp/Job-40.odb,Step-1,Increment      1: Step Time =    1.000,"P-40-1",           684,       70.0387,       190.570,            0.,NA,NA,"",   1.04155E+06,   1.04005E+06,   1.04005E+06
C:/temp/Job-40.odb,Step-1,Increment      1: Step Time =    1.000,"P-40-1",           685,       79.8734,       190.319,            0.,NA,NA,"",   996.049E+03,   997.629E+03,   997.629E+03
C:/temp/Job-40.odb,Step-1,Increment      1: Step Time =    1.000,"P-40-1",           686,       109.706,       190.029,            0.,NA,NA,"",   932.686E+03,   938.594E+03,   938.594E+03
C:/temp/Job-40.odb,Step-1,Increment      1: Step Time =    1.000,"P-40-1",           687,       119.468,       190.393,            0.,NA,NA,"",   945.409E+03,   948.191E+03,   948.191E+03
C:/temp/Job-40.odb,Step-1,Increment      1: Step Time =    1.000,"P-40-1",           688,       128.913,       190.329,            0.,NA,NA,"",   968.858E+03,   968.709E+03,   968.709E+03
C:/temp/Job-40.odb,Step-1,Increment      1: Step Time =    1.000,"P-40-1",           689,       8.61448,       61.0961,            0.,NA,NA,"",   809.667E+03,   900.252E+03,   900.252E+03
C:/temp/Job-40.odb,Step-1,Increment      1: Step Time =    1.000,"P-40-1",           690,       8.92449,       70.4934,            0.,NA,NA,"",   745.871E+03,   834.140E+03,   834.140E+03
C:/temp/Job-40.odb,Step-1,Increment      1: Step Time =    1.000,"P-40-1",           691,       9.80362,       80.1748,            0.,NA,NA,"",   686.382E+03,   772.549E+03,   772.549E+03
C:/temp/Job-40.odb,Step-1,Increment      1: Step Time =    1.000,"P-40-1",           692,       10.1139,       90.3795,            0.,NA,NA,"",   640.155E+03,   725.287E+03,   725.287E+03
C:/temp/Job-40.odb,Step-1,Increment      1: Step Time =    1.000,"P-40-1",           693,       10.0194,       100.358,            0.,NA,NA,"",   625.480E+03,   710.267E+03,   710.267E+03
C:/temp/Job-40.odb,Step-1,Increment      1: Step Time =    1.000,"P-40-1",           694,       9.94172,       110.165,            0.,NA,NA,"",   643.080E+03,   728.338E+03,   728.338E+03
C:/temp/Job-40.odb,Step-1,Increment      1: Step Time =    1.000,"P-40-1",           695,       9.69891,       119.891,            0.,NA,NA,"",   687.446E+03,   773.749E+03,   773.749E+03
C:/temp/Job-40.odb,Step-1,Increment      1: Step Time =    1.000,"P-40-1",           696,       9.64711,       129.351,            0.,NA,NA,"",   747.490E+03,   834.997E+03,   834.997E+03
C:/temp/Job-40.odb,Step-1,Increment      1: Step Time =    1.000,"P-40-1",           697,       10.7678,       138.461,            0.,NA,NA,"",   816.038E+03,   902.993E+03,   902.993E+03
C:/temp/Job-40.odb,Step-1,Increment      1: Step Time =    1.000,"P-40-1",           698,       89.7884,       189.989,            0.,NA,NA,"",   958.140E+03,   963.396E+03,   963.396E+03
C:/temp/Job-40.odb,Step-1,Increment      1: Step Time =    1.000,"P-40-1",           699,       99.8012,       189.842,            0.,NA,NA,"",   935.585E+03,   942.826E+03,   942.826E+03
C:/temp/Job-40.odb,Step-1,Increment      1: Step Time =    1.000,"P-40-1",           700,       137.912,       188.620,            0.,NA,NA,"",   1.00030E+06,   997.196E+03,   997.196E+03
C:/temp/Job-40.odb,Step-1,Increment      1: Step Time =    1.000,"P-40-1",           701,       82.4873,       76.6594,            0.,NA,NA,"",   1.43499E+06,   1.43130E+06,   1.43130E+06
C:/temp/Job-40.odb,Step-1,Increment      1: Step Time =    1.000,"P-40-1",           702,       89.6819,       128.730,            0.,NA,NA,"",   1.83892E+06,   1.93319E+06,   1.93319E+06
C:/temp/Job-40.odb,Step-1,Increment      1: Step Time =    1.000,"P-40-1",           703,       107.592,       72.0719,            0.,NA,NA,"",   2.11101E+06,   2.21276E+06,   2.21276E+06
C:/temp/Job-40.odb,Step-1,Increment      1: Step Time =    1.000,"P-40-1",           704,       59.9919,       17.2269,            0.,NA,NA,"",   1.12921E+06,   1.12171E+06,   1.12171E+06
C:/temp/Job-40.odb,Step-1,Increment      1: Step Time =    1.000,"P-40-1",           705,       12.8113,       61.6229,            0.,NA,NA,"",   824.062E+03,   907.822E+03,   907.822E+03
C:/temp/Job-40.odb,Step-1,Increment      1: Step Time =    1.000,"P-40-1",           706,       182.045,       60.3244,            0.,NA,NA,"",   997.529E+03,   1.02635E+06,   1.02635E+06
C:/temp/Job-40.odb,Step-1,Increment      1: Step Time =    1.000,"P-40-1",           707,       60.2431,       185.925,            0.,NA,NA,"",   1.11258E+06,   1.10681E+06,   1.10681E+06
C:/temp/Job-40.odb,Step-1,Increment      1: Step Time =    1.000,"P-40-1",           708,       139.408,       14.0628,            0.,NA,NA,"",   1.01943E+06,   1.01435E+06,   1.01435E+06
C:/temp/Job-40.odb,Step-1,Increment      1: Step Time =    1.000,"P-40-1",           709,       15.3809,       137.290,            0.,NA,NA,"",   827.104E+03,   906.294E+03,   906.294E+03
C:/temp/Job-40.odb,Step-1,Increment      1: Step Time =    1.000,"P-40-1",           710,       186.128,       139.234,            0.,NA,NA,"",   976.614E+03,   1.01723E+06,   1.01723E+06
C:/temp/Job-40.odb,Step-1,Increment      1: Step Time =    1.000,"P-40-1",           711,       139.635,       182.055,            0.,NA,NA,"",   1.04607E+06,   1.03843E+06,   1.03843E+06
C:/temp/Job-40.odb,Step-1,Increment      1: Step Time =    1.000,"P-40-1",           712,       71.9559,       117.065,            0.,NA,NA,"",   975.871E+03,   796.956E+03,   796.956E+03
C:/temp/Job-40.odb,Step-1,Increment      1: Step Time =    1.000,"P-40-1",           713,       71.7095,       78.9806,            0.,NA,NA,"",   1.18559E+06,   1.03130E+06,   1.03130E+06
C:/temp/Job-40.odb,Step-1,Increment      1: Step Time =    1.000,"P-40-1",           714,       128.403,       117.725,            0.,NA,NA,"",   1.15366E+06,   926.347E+03,   926.347E+03
C:/temp/Job-40.odb,Step-1,Increment      1: Step Time =    1.000,"P-40-1",           715,       129.868,       79.6034,            0.,NA,NA,"",   1.27675E+06,   1.06764E+06,   1.06764E+06
C:/temp/Job-40.odb,Step-1,Increment      1: Step Time =    1.000,"P-40-1",           716,       129.602,       14.6064,            0.,NA,NA,"",   1.00704E+06,   1.00584E+06,   1.00584E+06
C:/temp/Job-40.odb,Step-1,Increment      1: Step Time =    1.000,"P-40-1",           717,       13.3774,       70.5056,            0.,NA,NA,"",   758.125E+03,   841.448E+03,   841.448E+03
C:/temp/Job-40.odb,Step-1,Increment      1: Step Time =    1.000,"P-40-1",           718,       71.5473,       14.1789,            0.,NA,NA,"",   1.06579E+06,   1.06427E+06,   1.06427E+06
C:/temp/Job-40.odb,Step-1,Increment      1: Step Time =    1.000,"P-40-1",           719,       14.3587,       128.975,            0.,NA,NA,"",   758.585E+03,   840.616E+03,   840.616E+03
C:/temp/Job-40.odb,Step-1,Increment      1: Step Time =    1.000,"P-40-1",           720,       70.0276,       185.917,            0.,NA,NA,"",   1.07284E+06,   1.07032E+06,   1.07032E+06
C:/temp/Job-40.odb,Step-1,Increment      1: Step Time =    1.000,"P-40-1",           721,       185.693,       129.444,            0.,NA,NA,"",   949.914E+03,   1.00661E+06,   1.00661E+06
C:/temp/Job-40.odb,Step-1,Increment      1: Step Time =    1.000,"P-40-1",           722,       185.732,       71.6719,            0.,NA,NA,"",   944.556E+03,   1.00385E+06,   1.00385E+06
C:/temp/Job-40.odb,Step-1,Increment      1: Step Time =    1.000,"P-40-1",           723,       128.304,       185.750,            0.,NA,NA,"",   1.00023E+06,   1.00012E+06,   1.00012E+06
C:/temp/Job-40.odb,Step-1,Increment      1: Step Time =    1.000,"P-40-1",           724,       61.4395,       99.4562,            0.,NA,NA,"",   275.317E+03,   256.122E+03,   256.122E+03
C:/temp/Job-40.odb,Step-1,Increment      1: Step Time =    1.000,"P-40-1",           725,       136.728,       101.642,            0.,NA,NA,"",   363.613E+03,   171.535E+03,   171.535E+03
C:/temp/Job-40.odb,Step-1,Increment      1: Step Time =    1.000,"P-40-1",           726,       130.711,       112.919,            0.,NA,NA,"",   899.071E+03,   440.038E+03,   440.038E+03
C:/temp/Job-40.odb,Step-1,Increment      1: Step Time =    1.000,"P-40-1",           727,       134.503,       104.842,            0.,NA,NA,"",   449.865E+03,   65.3347E+03,   65.3347E+03
C:/temp/Job-40.odb,Step-1,Increment      1: Step Time =    1.000,"P-40-1",           728,       69.2522,       112.366,            0.,NA,NA,"",   733.526E+03,   372.764E+03,   372.764E+03
C:/temp/Job-40.odb,Step-1,Increment      1: Step Time =    1.000,"P-40-1",           729,       14.7211,       79.8455,            0.,NA,NA,"",   694.263E+03,   777.267E+03,   777.267E+03
C:/temp/Job-40.odb,Step-1,Increment      1: Step Time =    1.000,"P-40-1",           730,       119.767,       15.0107,            0.,NA,NA,"",   987.999E+03,   993.134E+03,   993.134E+03
C:/temp/Job-40.odb,Step-1,Increment      1: Step Time =    1.000,"P-40-1",           731,       80.6200,       14.4959,            0.,NA,NA,"",   1.02858E+06,   1.03225E+06,   1.03225E+06
C:/temp/Job-40.odb,Step-1,Increment      1: Step Time =    1.000,"P-40-1",           732,       14.6766,       119.948,            0.,NA,NA,"",   692.824E+03,   775.933E+03,   775.933E+03
C:/temp/Job-40.odb,Step-1,Increment      1: Step Time =    1.000,"P-40-1",           733,       79.6894,       185.532,            0.,NA,NA,"",   1.03364E+06,   1.03689E+06,   1.03689E+06
C:/temp/Job-40.odb,Step-1,Increment      1: Step Time =    1.000,"P-40-1",           734,       185.172,       119.572,            0.,NA,NA,"",   916.028E+03,   987.717E+03,   987.717E+03
C:/temp/Job-40.odb,Step-1,Increment      1: Step Time =    1.000,"P-40-1",           735,       185.564,       80.6005,            0.,NA,NA,"",   914.591E+03,   988.022E+03,   988.022E+03
C:/temp/Job-40.odb,Step-1,Increment      1: Step Time =    1.000,"P-40-1",           736,       119.354,       185.507,            0.,NA,NA,"",   983.398E+03,   988.948E+03,   988.948E+03
C:/temp/Job-40.odb,Step-1,Increment      1: Step Time =    1.000,"P-40-1",           737,       14.9907,       90.8237,            0.,NA,NA,"",   635.124E+03,    718.78E+03,    718.78E+03
C:/temp/Job-40.odb,Step-1,Increment      1: Step Time =    1.000,"P-40-1",           738,       110.110,       14.7041,            0.,NA,NA,"",   969.552E+03,   981.343E+03,   981.343E+03
C:/temp/Job-40.odb,Step-1,Increment      1: Step Time =    1.000,"P-40-1",           739,       90.3523,       14.5801,            0.,NA,NA,"",   991.338E+03,   1.00159E+06,   1.00159E+06
C:/temp/Job-40.odb,Step-1,Increment      1: Step Time =    1.000,"P-40-1",           740,       15.0508,       110.302,            0.,NA,NA,"",   640.469E+03,   724.043E+03,   724.043E+03
C:/temp/Job-40.odb,Step-1,Increment      1: Step Time =    1.000,"P-40-1",           741,       89.5574,       184.931,            0.,NA,NA,"",   998.172E+03,   1.00848E+06,   1.00848E+06
C:/temp/Job-40.odb,Step-1,Increment      1: Step Time =    1.000,"P-40-1",           742,       184.869,       109.512,            0.,NA,NA,"",   883.958E+03,   967.050E+03,   967.050E+03
C:/temp/Job-40.odb,Step-1,Increment      1: Step Time =    1.000,"P-40-1",           743,       185.329,       90.0435,            0.,NA,NA,"",   885.056E+03,   969.075E+03,   969.075E+03
C:/temp/Job-40.odb,Step-1,Increment      1: Step Time =    1.000,"P-40-1",           744,       109.662,       184.835,            0.,NA,NA,"",   972.762E+03,   984.645E+03,   984.645E+03
C:/temp/Job-40.odb,Step-1,Increment      1: Step Time =    1.000,"P-40-1",           745,       92.3735,       132.870,            0.,NA,NA,"",   1.67979E+06,   1.80641E+06,   1.80641E+06
C:/temp/Job-40.odb,Step-1,Increment      1: Step Time =    1.000,"P-40-1",           746,       107.807,       66.0538,            0.,NA,NA,"",   1.56417E+06,   1.69539E+06,   1.69539E+06
C:/temp/Job-40.odb,Step-1,Increment      1: Step Time =    1.000,"P-40-1",           747,       100.284,       14.6526,            0.,NA,NA,"",   969.574E+03,   982.749E+03,   982.749E+03
C:/temp/Job-40.odb,Step-1,Increment      1: Step Time =    1.000,"P-40-1",           748,       15.0865,       100.568,            0.,NA,NA,"",   619.341E+03,   703.024E+03,   703.024E+03
C:/temp/Job-40.odb,Step-1,Increment      1: Step Time =    1.000,"P-40-1",           749,       185.166,       99.7383,            0.,NA,NA,"",   869.342E+03,   957.334E+03,   957.334E+03
C:/temp/Job-40.odb,Step-1,Increment      1: Step Time =    1.000,"P-40-1",           750,       99.6957,       184.599,            0.,NA,NA,"",   975.332E+03,   989.911E+03,   989.911E+03
C:/temp/Job-40.odb,Step-1,Increment      1: Step Time =    1.000,"P-40-1",           751,       17.1451,       66.0279,            0.,NA,NA,"",   808.268E+03,   884.980E+03,   884.980E+03
C:/temp/Job-40.odb,Step-1,Increment      1: Step Time =    1.000,"P-40-1",           752,       63.6745,       15.7850,            0.,NA,NA,"",   1.10764E+06,   1.10212E+06,   1.10212E+06
C:/temp/Job-40.odb,Step-1,Increment      1: Step Time =    1.000,"P-40-1",           753,       183.745,       63.8969,            0.,NA,NA,"",   978.124E+03,   1.01786E+06,   1.01786E+06
C:/temp/Job-40.odb,Step-1,Increment      1: Step Time =    1.000,"P-40-1",           754,       65.1630,       186.015,            0.,NA,NA,"",   1.09301E+06,   1.08858E+06,   1.08858E+06
C:/temp/Job-40.odb,Step-1,Increment      1: Step Time =    1.000,"P-40-1",           755,       134.541,       14.3205,            0.,NA,NA,"",   1.01439E+06,   1.01072E+06,   1.01072E+06
C:/temp/Job-40.odb,Step-1,Increment      1: Step Time =    1.000,"P-40-1",           756,       14.6732,       133.275,            0.,NA,NA,"",   794.071E+03,   875.066E+03,   875.066E+03
C:/temp/Job-40.odb,Step-1,Increment      1: Step Time =    1.000,"P-40-1",           757,       185.927,       134.360,            0.,NA,NA,"",   964.605E+03,   1.01310E+06,   1.01310E+06
C:/temp/Job-40.odb,Step-1,Increment      1: Step Time =    1.000,"P-40-1",           758,       136.053,       183.765,            0.,NA,NA,"",   1.02889E+06,   1.02412E+06,   1.02412E+06
C:/temp/Job-40.odb,Step-1,Increment      1: Step Time =    1.000,"P-40-1",           759,       71.7976,       124.514,            0.,NA,NA,"",   1.30163E+06,   1.16513E+06,   1.16513E+06
C:/temp/Job-40.odb,Step-1,Increment      1: Step Time =    1.000,"P-40-1",           760,       69.9746,       74.3480,            0.,NA,NA,"",   1.31485E+06,   1.18432E+06,   1.18432E+06
C:/temp/Job-40.odb,Step-1,Increment      1: Step Time =    1.000,"P-40-1",           761,       132.924,       74.3816,            0.,NA,NA,"",   1.36890E+06,   1.19707E+06,   1.19707E+06
C:/temp/Job-40.odb,Step-1,Increment      1: Step Time =    1.000,"P-40-1",           762,       67.7922,       84.9585,            0.,NA,NA,"",   861.016E+03,   696.399E+03,   696.399E+03
C:/temp/Job-40.odb,Step-1,Increment      1: Step Time =    1.000,"P-40-1",           763,       14.4568,       124.525,            0.,NA,NA,"",   724.344E+03,   807.036E+03,   807.036E+03
C:/temp/Job-40.odb,Step-1,Increment      1: Step Time =    1.000,"P-40-1",           764,       124.635,       14.8815,            0.,NA,NA,"",   997.827E+03,   999.777E+03,   999.777E+03
C:/temp/Job-40.odb,Step-1,Increment      1: Step Time =    1.000,"P-40-1",           765,       13.9863,       75.0605,            0.,NA,NA,"",   725.637E+03,   808.808E+03,   808.808E+03
C:/temp/Job-40.odb,Step-1,Increment      1: Step Time =    1.000,"P-40-1",           766,       75.9781,       14.3131,            0.,NA,NA,"",   1.04714E+06,   1.04801E+06,   1.04801E+06
C:/temp/Job-40.odb,Step-1,Increment      1: Step Time =    1.000,"P-40-1",           767,       185.428,       124.504,            0.,NA,NA,"",   933.654E+03,   998.155E+03,   998.155E+03
C:/temp/Job-40.odb,Step-1,Increment      1: Step Time =    1.000,"P-40-1",           768,       185.716,       76.0275,            0.,NA,NA,"",   929.813E+03,   996.546E+03,   996.546E+03
C:/temp/Job-40.odb,Step-1,Increment      1: Step Time =    1.000,"P-40-1",           769,       74.8336,       185.732,            0.,NA,NA,"",   1.05333E+06,   1.05328E+06,   1.05328E+06
C:/temp/Job-40.odb,Step-1,Increment      1: Step Time =    1.000,"P-40-1",           770,       123.950,       185.727,            0.,NA,NA,"",   991.161E+03,   993.551E+03,   993.551E+03
C:/temp/Job-40.odb,Step-1,Increment      1: Step Time =    1.000,"P-40-1",           771,       64.4997,       103.580,            0.,NA,NA,"",   308.654E+03,   140.725E+03,   140.725E+03
C:/temp/Job-40.odb,Step-1,Increment      1: Step Time =    1.000,"P-40-1",           772,       137.016,       111.050,            0.,NA,NA,"",   785.427E+03,   623.401E+03,   623.401E+03
C:/temp/Job-40.odb,Step-1,Increment      1: Step Time =    1.000,"P-40-1",           773,       62.6556,       110.533,            0.,NA,NA,"",   611.735E+03,   520.671E+03,   520.671E+03
C:/temp/Job-40.odb,Step-1,Increment      1: Step Time =    1.000,"P-40-1",           774,       85.4234,       14.5323,            0.,NA,NA,"",   1.00901E+06,   1.01622E+06,   1.01622E+06
C:/temp/Job-40.odb,Step-1,Increment      1: Step Time =    1.000,"P-40-1",           775,       14.8946,       115.161,            0.,NA,NA,"",   663.902E+03,   747.292E+03,   747.292E+03
C:/temp/Job-40.odb,Step-1,Increment      1: Step Time =    1.000,"P-40-1",           776,       15.8061,       85.3247,            0.,NA,NA,"",   659.773E+03,   742.420E+03,   742.420E+03
C:/temp/Job-40.odb,Step-1,Increment      1: Step Time =    1.000,"P-40-1",           777,       114.959,       14.8969,            0.,NA,NA,"",   977.901E+03,   986.577E+03,   986.577E+03
C:/temp/Job-40.odb,Step-1,Increment      1: Step Time =    1.000,"P-40-1",           778,       185.405,       85.2767,            0.,NA,NA,"",   899.209E+03,   978.477E+03,   978.477E+03
C:/temp/Job-40.odb,Step-1,Increment      1: Step Time =    1.000,"P-40-1",           779,       114.548,       185.159,            0.,NA,NA,"",   976.951E+03,   985.840E+03,   985.840E+03
C:/temp/Job-40.odb,Step-1,Increment      1: Step Time =    1.000,"P-40-1",           780,       84.5844,       185.219,            0.,NA,NA,"",   1.01500E+06,   1.02172E+06,   1.02172E+06
C:/temp/Job-40.odb,Step-1,Increment      1: Step Time =    1.000,"P-40-1",           781,       184.962,       114.526,            0.,NA,NA,"",   898.413E+03,   976.463E+03,   976.463E+03
C:/temp/Job-40.odb,Step-1,Increment      1: Step Time =    1.000,"P-40-1",           782,       95.3214,       14.6455,            0.,NA,NA,"",   978.268E+03,   990.376E+03,   990.376E+03
C:/temp/Job-40.odb,Step-1,Increment      1: Step Time =    1.000,"P-40-1",           783,       15.1133,       105.417,            0.,NA,NA,"",   625.277E+03,   708.931E+03,   708.931E+03
C:/temp/Job-40.odb,Step-1,Increment      1: Step Time =    1.000,"P-40-1",           784,       185.257,       94.8407,            0.,NA,NA,"",   874.154E+03,   961.255E+03,   961.255E+03
C:/temp/Job-40.odb,Step-1,Increment      1: Step Time =    1.000,"P-40-1",           785,       104.716,       184.639,            0.,NA,NA,"",   971.833E+03,   985.800E+03,   985.800E+03
C:/temp/Job-40.odb,Step-1,Increment      1: Step Time =    1.000,"P-40-1",           786,       105.178,       14.6423,            0.,NA,NA,"",   966.360E+03,   979.568E+03,   979.568E+03
C:/temp/Job-40.odb,Step-1,Increment      1: Step Time =    1.000,"P-40-1",           787,       14.9846,       95.7317,            0.,NA,NA,"",   622.603E+03,   706.330E+03,   706.330E+03
C:/temp/Job-40.odb,Step-1,Increment      1: Step Time =    1.000,"P-40-1",           788,       184.969,       104.575,            0.,NA,NA,"",   873.556E+03,   960.077E+03,   960.077E+03
C:/temp/Job-40.odb,Step-1,Increment      1: Step Time =    1.000,"P-40-1",           789,       94.6317,       184.721,            0.,NA,NA,"",   984.132E+03,   997.485E+03,   997.485E+03
C:/temp/Job-40.odb,Step-1,Increment      1: Step Time =    1.000,"P-40-1",           790,       98.6988,       135.172,            0.,NA,NA,"",   1.55862E+06,   1.71206E+06,   1.71206E+06
C:/temp/Job-40.odb,Step-1,Increment      1: Step Time =    1.000,"P-40-1",           791,       85.4088,       132.436,            0.,NA,NA,"",   1.52944E+06,   1.58164E+06,   1.58164E+06
C:/temp/Job-40.odb,Step-1,Increment      1: Step Time =    1.000,"P-40-1",           792,       101.391,       65.7084,            0.,NA,NA,"",   1.67653E+06,   1.83033E+06,   1.83033E+06
C:/temp/Job-40.odb,Step-1,Increment      1: Step Time =    1.000,"P-40-1",           793,       113.853,       68.1726,            0.,NA,NA,"",   1.59518E+06,   1.66329E+06,   1.66329E+06
C:/temp/Job-40.odb,Step-1,Increment      1: Step Time =    1.000,"P-40-1",           794,       134.068,       89.4804,            0.,NA,NA,"",   775.683E+03,   568.955E+03,   568.955E+03
C:/temp/Job-40.odb,Step-1,Increment      1: Step Time =    1.000,"P-40-1",           795,       67.3237,       90.0226,            0.,NA,NA,"",   600.725E+03,   320.975E+03,   320.975E+03
C:/temp/Job-40.odb,Step-1,Increment      1: Step Time =    1.000,"P-40-1",           796,       78.5316,       73.7205,            0.,NA,NA,"",   1.45847E+06,   1.38691E+06,   1.38691E+06
C:/temp/Job-40.odb,Step-1,Increment      1: Step Time =    1.000,"P-40-1",           797,       132.116,       85.5703,            0.,NA,NA,"",   1.01059E+06,   764.494E+03,   764.494E+03
C:/temp/Job-40.odb,Step-1,Increment      1: Step Time =    1.000,"P-40-1",           798,       78.9903,       125.422,            0.,NA,NA,"",   1.43468E+06,   1.37149E+06,   1.37149E+06
C:/temp/Job-40.odb,Step-1,Increment      1: Step Time =    1.000,"P-40-1",           799,       120.739,       75.6040,            0.,NA,NA,"",   1.46807E+06,   1.40606E+06,   1.40606E+06
C:/temp/Job-40.odb,Step-1,Increment      1: Step Time =    1.000,"P-40-1",           800,       122.090,       126.223,            0.,NA,NA,"",   1.51682E+06,   1.43219E+06,   1.43219E+06
C:/temp/Job-40.odb,Step-1,Increment      1: Step Time =    1.000,"P-40-1",           801,       139.801,       99.0550,            0.,NA,NA,"",   387.096E+03,   337.865E+03,   337.865E+03
C:/temp/Job-40.odb,Step-1,Increment      1: Step Time =    1.000,"P-40-1",           802,       164.546,       10.6570,            0.,NA,NA,"",   1.01416E+06,   1.01194E+06,   1.01194E+06
C:/temp/Job-40.odb,Step-1,Increment      1: Step Time =    1.000,"P-40-1",           803,       9.27285,       164.920,            0.,NA,NA,"",   996.598E+03,   1.08922E+06,   1.08922E+06
C:/temp/Job-40.odb,Step-1,Increment      1: Step Time =    1.000,"P-40-1",           804,       10.4415,       40.7914,            0.,NA,NA,"",   962.837E+03,   1.05214E+06,   1.05214E+06
C:/temp/Job-40.odb,Step-1,Increment      1: Step Time =    1.000,"P-40-1",           805,       34.8843,       8.91695,            0.,NA,NA,"",   1.18646E+06,   1.18690E+06,   1.18690E+06
C:/temp/Job-40.odb,Step-1,Increment      1: Step Time =    1.000,"P-40-1",           806,       161.594,       190.840,            0.,NA,NA,"",   1.01035E+06,   1.00847E+06,   1.00847E+06
C:/temp/Job-40.odb,Step-1,Increment      1: Step Time =    1.000,"P-40-1",           807,       189.399,       164.458,            0.,NA,NA,"",   998.787E+03,   1.01036E+06,   1.01036E+06
C:/temp/Job-40.odb,Step-1,Increment      1: Step Time =    1.000,"P-40-1",           808,       35.5299,       189.241,            0.,NA,NA,"",   1.18683E+06,   1.18733E+06,   1.18733E+06
C:/temp/Job-40.odb,Step-1,Increment      1: Step Time =    1.000,"P-40-1",           809,       190.898,       38.4471,            0.,NA,NA,"",   992.668E+03,   1.00836E+06,   1.00836E+06
C:/temp/Job-40.odb,Step-1,Increment      1: Step Time =    1.000,"P-40-1",           810,       68.5170,       127.789,            0.,NA,NA,"",   1.29701E+06,   1.17762E+06,   1.17762E+06
C:/temp/Job-40.odb,Step-1,Increment      1: Step Time =    1.000,"P-40-1",           811,       68.1207,       70.1585,            0.,NA,NA,"",   1.33135E+06,   1.22559E+06,   1.22559E+06
C:/temp/Job-40.odb,Step-1,Increment      1: Step Time =    1.000,"P-40-1",           812,       133.459,       129.706,            0.,NA,NA,"",   1.41528E+06,   1.26507E+06,   1.26507E+06
C:/temp/Job-40.odb,Step-1,Increment      1: Step Time =    1.000,"P-40-1",           813,       56.3407,       108.898,            0.,NA,NA,"",   532.624E+03,   524.549E+03,   524.549E+03
C:/temp/Job-40.odb,Step-1,Increment      1: Step Time =    1.000,"P-40-1",           814,       109.956,       19.3726,            0.,NA,NA,"",   1.00124E+06,   1.01997E+06,   1.01997E+06
C:/temp/Job-40.odb,Step-1,Increment      1: Step Time =    1.000,"P-40-1",           815,       19.5954,       91.4908,            0.,NA,NA,"",   628.852E+03,   710.115E+03,   710.115E+03
C:/temp/Job-40.odb,Step-1,Increment      1: Step Time =    1.000,"P-40-1",           816,       179.597,       109.147,            0.,NA,NA,"",   873.402E+03,   942.407E+03,   942.407E+03
C:/temp/Job-40.odb,Step-1,Increment      1: Step Time =    1.000,"P-40-1",           817,       89.1673,       179.858,            0.,NA,NA,"",   1.03338E+06,   1.04962E+06,   1.04962E+06
C:/temp/Job-40.odb,Step-1,Increment      1: Step Time =    1.000,"P-40-1",           818,       100.406,       19.4348,            0.,NA,NA,"",   999.897E+03,   1.02131E+06,   1.02131E+06
C:/temp/Job-40.odb,Step-1,Increment      1: Step Time =    1.000,"P-40-1",           819,       20.2943,       100.696,            0.,NA,NA,"",   610.787E+03,   692.232E+03,   692.232E+03
C:/temp/Job-40.odb,Step-1,Increment      1: Step Time =    1.000,"P-40-1",           820,       180.335,       99.4589,            0.,NA,NA,"",   854.434E+03,   929.654E+03,   929.654E+03
C:/temp/Job-40.odb,Step-1,Increment      1: Step Time =    1.000,"P-40-1",           821,       99.5205,       179.159,            0.,NA,NA,"",   1.00852E+06,   1.03282E+06,   1.03282E+06
C:/temp/Job-40.odb,Step-1,Increment      1: Step Time =    1.000,"P-40-1",           822,       164.874,       15.8161,            0.,NA,NA,"",   1.02790E+06,   1.02355E+06,   1.02355E+06
C:/temp/Job-40.odb,Step-1,Increment      1: Step Time =    1.000,"P-40-1",           823,       14.1480,       164.711,            0.,NA,NA,"",   1.03053E+06,   1.10664E+06,   1.10664E+06
C:/temp/Job-40.odb,Step-1,Increment      1: Step Time =    1.000,"P-40-1",           824,       15.3475,       40.2243,            0.,NA,NA,"",   999.574E+03,   1.07374E+06,   1.07374E+06
C:/temp/Job-40.odb,Step-1,Increment      1: Step Time =    1.000,"P-40-1",           825,       34.4935,       13.2841,            0.,NA,NA,"",   1.19344E+06,   1.19512E+06,   1.19512E+06
C:/temp/Job-40.odb,Step-1,Increment      1: Step Time =    1.000,"P-40-1",           826,       162.459,       186.580,            0.,NA,NA,"",   1.02229E+06,   1.01857E+06,   1.01857E+06
C:/temp/Job-40.odb,Step-1,Increment      1: Step Time =    1.000,"P-40-1",           827,       184.298,       164.698,            0.,NA,NA,"",   1.01203E+06,   1.02013E+06,   1.02013E+06
C:/temp/Job-40.odb,Step-1,Increment      1: Step Time =    1.000,"P-40-1",           828,       35.2867,       184.035,            0.,NA,NA,"",   1.19004E+06,   1.19193E+06,   1.19193E+06
C:/temp/Job-40.odb,Step-1,Increment      1: Step Time =    1.000,"P-40-1",           829,       186.677,       37.6250,            0.,NA,NA,"",   1.00394E+06,   1.01614E+06,   1.01614E+06
C:/temp/Job-40.odb,Step-1,Increment      1: Step Time =    1.000,"P-40-1",           830,       141.513,       113.008,            0.,NA,NA,"",   876.123E+03,   758.816E+03,   758.816E+03
C:/temp/Job-40.odb,Step-1,Increment      1: Step Time =    1.000,"P-40-1",           831,       17.0266,       58.2326,            0.,NA,NA,"",   873.353E+03,   947.667E+03,   947.667E+03
C:/temp/Job-40.odb,Step-1,Increment      1: Step Time =    1.000,"P-40-1",           832,       61.6828,       20.9175,            0.,NA,NA,"",   1.14237E+06,   1.13320E+06,   1.13320E+06
C:/temp/Job-40.odb,Step-1,Increment      1: Step Time =    1.000,"P-40-1",           833,       60.4631,       181.250,            0.,NA,NA,"",   1.13637E+06,   1.12772E+06,   1.12772E+06
C:/temp/Job-40.odb,Step-1,Increment      1: Step Time =    1.000,"P-40-1",           834,       178.330,       62.2690,            0.,NA,NA,"",   1.01074E+06,   1.03189E+06,   1.03189E+06
C:/temp/Job-40.odb,Step-1,Increment      1: Step Time =    1.000,"P-40-1",           835,       19.7331,       136.456,            0.,NA,NA,"",   841.975E+03,   912.952E+03,   912.952E+03
C:/temp/Job-40.odb,Step-1,Increment      1: Step Time =    1.000,"P-40-1",           836,       139.389,       18.8904,            0.,NA,NA,"",   1.05121E+06,   1.04273E+06,   1.04273E+06
C:/temp/Job-40.odb,Step-1,Increment      1: Step Time =    1.000,"P-40-1",           837,       181.398,       139.073,            0.,NA,NA,"",   1.00007E+06,   1.02775E+06,   1.02775E+06
C:/temp/Job-40.odb,Step-1,Increment      1: Step Time =    1.000,"P-40-1",           838,       137.625,       178.371,            0.,NA,NA,"",   1.06773E+06,   1.05831E+06,   1.05831E+06
C:/temp/Job-40.odb,Step-1,Increment      1: Step Time =    1.000,"P-40-1",           839,       67.3144,       120.482,            0.,NA,NA,"",   1.10672E+06,   956.965E+03,   956.965E+03
C:/temp/Job-40.odb,Step-1,Increment      1: Step Time =    1.000,"P-40-1",           840,       133.648,       121.395,            0.,NA,NA,"",   1.26981E+06,   1.07350E+06,   1.07350E+06
C:/temp/Job-40.odb,Step-1,Increment      1: Step Time =    1.000,"P-40-1",           841,       136.994,       77.7299,            0.,NA,NA,"",   1.25047E+06,   1.06976E+06,   1.06976E+06
C:/temp/Job-40.odb,Step-1,Increment      1: Step Time =    1.000,"P-40-1",           842,       66.0929,       75.4447,            0.,NA,NA,"",   1.21433E+06,   1.08301E+06,   1.08301E+06
C:/temp/Job-40.odb,Step-1,Increment      1: Step Time =    1.000,"P-40-1",           843,       129.582,       19.5529,            0.,NA,NA,"",   1.04335E+06,   1.04111E+06,   1.04111E+06
C:/temp/Job-40.odb,Step-1,Increment      1: Step Time =    1.000,"P-40-1",           844,       18.8526,       128.740,            0.,NA,NA,"",   773.265E+03,   848.602E+03,   848.602E+03
C:/temp/Job-40.odb,Step-1,Increment      1: Step Time =    1.000,"P-40-1",           845,       69.9493,       181.397,            0.,NA,NA,"",   1.10329E+06,   1.09976E+06,   1.09976E+06
C:/temp/Job-40.odb,Step-1,Increment      1: Step Time =    1.000,"P-40-1",           846,       181.655,       68.5928,            0.,NA,NA,"",   971.392E+03,   1.01289E+06,   1.01289E+06
C:/temp/Job-40.odb,Step-1,Increment      1: Step Time =    1.000,"P-40-1",           847,       17.7533,       70.2728,            0.,NA,NA,"",   775.355E+03,   852.346E+03,   852.346E+03
C:/temp/Job-40.odb,Step-1,Increment      1: Step Time =    1.000,"P-40-1",           848,       68.2588,       18.0286,            0.,NA,NA,"",   1.10397E+06,   1.09935E+06,   1.09935E+06
C:/temp/Job-40.odb,Step-1,Increment      1: Step Time =    1.000,"P-40-1",           849,       180.904,       129.291,            0.,NA,NA,"",   967.041E+03,   1.00899E+06,   1.00899E+06
C:/temp/Job-40.odb,Step-1,Increment      1: Step Time =    1.000,"P-40-1",           850,       131.340,       181.680,            0.,NA,NA,"",   1.03456E+06,   1.03181E+06,   1.03181E+06
C:/temp/Job-40.odb,Step-1,Increment      1: Step Time =    1.000,"P-40-1",           851,       20.4078,       83.0681,            0.,NA,NA,"",   676.348E+03,   754.777E+03,   754.777E+03
C:/temp/Job-40.odb,Step-1,Increment      1: Step Time =    1.000,"P-40-1",           852,       119.517,       20.4972,            0.,NA,NA,"",   1.02640E+06,   1.03566E+06,   1.03566E+06
C:/temp/Job-40.odb,Step-1,Increment      1: Step Time =    1.000,"P-40-1",           853,       79.3855,       180.935,            0.,NA,NA,"",   1.06763E+06,   1.07278E+06,   1.07278E+06
C:/temp/Job-40.odb,Step-1,Increment      1: Step Time =    1.000,"P-40-1",           854,       180.132,       119.466,            0.,NA,NA,"",   922.524E+03,   978.791E+03,   978.791E+03
C:/temp/Job-40.odb,Step-1,Increment      1: Step Time =    1.000,"P-40-1",           855,       88.3363,       135.762,            0.,NA,NA,"",   1.48664E+06,   1.57273E+06,   1.57273E+06
C:/temp/Job-40.odb,Step-1,Increment      1: Step Time =    1.000,"P-40-1",           856,       111.649,       63.7934,            0.,NA,NA,"",   1.46684E+06,   1.55894E+06,   1.55894E+06
C:/temp/Job-40.odb,Step-1,Increment      1: Step Time =    1.000,"P-40-1",           857,       62.3125,       89.3723,            0.,NA,NA,"",   620.851E+03,   533.118E+03,   533.118E+03
C:/temp/Job-40.odb,Step-1,Increment      1: Step Time =    1.000,"P-40-1",           858,       118.332,       70.0754,            0.,NA,NA,"",   1.58436E+06,   1.57804E+06,   1.57804E+06
C:/temp/Job-40.odb,Step-1,Increment      1: Step Time =    1.000,"P-40-1",           859,       118.989,       129.960,            0.,NA,NA,"",   1.55875E+06,   1.54640E+06,   1.54640E+06
C:/temp/Job-40.odb,Step-1,Increment      1: Step Time =    1.000,"P-40-1",           860,       82.3486,       129.100,            0.,NA,NA,"",   1.53529E+06,   1.53536E+06,   1.53536E+06
C:/temp/Job-40.odb,Step-1,Increment      1: Step Time =    1.000,"P-40-1",           861,       57.1465,       95.0817,            0.,NA,NA,"",   419.991E+03,   418.846E+03,   418.846E+03
C:/temp/Job-40.odb,Step-1,Increment      1: Step Time =    1.000,"P-40-1",           862,       75.2020,       128.454,            0.,NA,NA,"",   1.41964E+06,   1.32782E+06,   1.32782E+06
C:/temp/Job-40.odb,Step-1,Increment      1: Step Time =    1.000,"P-40-1",           863,       126.281,       129.849,            0.,NA,NA,"",   1.49925E+06,   1.38447E+06,   1.38447E+06
C:/temp/Job-40.odb,Step-1,Increment      1: Step Time =    1.000,"P-40-1",           864,       122.824,       71.4082,            0.,NA,NA,"",   1.53839E+06,   1.45522E+06,   1.45522E+06
C:/temp/Job-40.odb,Step-1,Increment      1: Step Time =    1.000,"P-40-1",           865,       142.812,       96.1713,            0.,NA,NA,"",   504.216E+03,   473.870E+03,   473.870E+03
C:/temp/Job-40.odb,Step-1,Increment      1: Step Time =    1.000,"P-40-1",           866,       101.626,       139.146,            0.,NA,NA,"",   1.39740E+06,   1.53695E+06,   1.53695E+06
C:/temp/Job-40.odb,Step-1,Increment      1: Step Time =    1.000,"P-40-1",           867,       99.2522,       60.9852,            0.,NA,NA,"",   1.40292E+06,   1.54881E+06,   1.54881E+06
C:/temp/Job-40.odb,Step-1,Increment      1: Step Time =    1.000,"P-40-1",           868,       143.658,       103.521,            0.,NA,NA,"",   500.252E+03,   477.997E+03,   477.997E+03
C:/temp/Job-40.odb,Step-1,Increment      1: Step Time =    1.000,"P-40-1",           869,       57.5640,       102.755,            0.,NA,NA,"",   355.711E+03,   370.120E+03,   370.120E+03
C:/temp/Job-40.odb,Step-1,Increment      1: Step Time =    1.000,"P-40-1",           870,       90.2566,       23.6674,            0.,NA,NA,"",   1.04792E+06,   1.07075E+06,   1.07075E+06
C:/temp/Job-40.odb,Step-1,Increment      1: Step Time =    1.000,"P-40-1",           871,       25.5146,       110.717,            0.,NA,NA,"",   634.751E+03,   710.638E+03,   710.638E+03
C:/temp/Job-40.odb,Step-1,Increment      1: Step Time =    1.000,"P-40-1",           872,       175.469,       90.0184,            0.,NA,NA,"",   866.533E+03,   924.281E+03,   924.281E+03
C:/temp/Job-40.odb,Step-1,Increment      1: Step Time =    1.000,"P-40-1",           873,       110.089,       173.307,            0.,NA,NA,"",   1.04457E+06,   1.07381E+06,   1.07381E+06
C:/temp/Job-40.odb,Step-1,Increment      1: Step Time =    1.000,"P-40-1",           874,       25.1108,       78.6457,            0.,NA,NA,"",   719.124E+03,   789.132E+03,   789.132E+03
C:/temp/Job-40.odb,Step-1,Increment      1: Step Time =    1.000,"P-40-1",           875,       119.206,       26.7540,            0.,NA,NA,"",   1.06788E+06,   1.08224E+06,   1.08224E+06
C:/temp/Job-40.odb,Step-1,Increment      1: Step Time =    1.000,"P-40-1",           876,       80.6042,       25.5810,            0.,NA,NA,"",   1.10269E+06,   1.11319E+06,   1.11319E+06
C:/temp/Job-40.odb,Step-1,Increment      1: Step Time =    1.000,"P-40-1",           877,       24.8253,       120.509,            0.,NA,NA,"",    713.44E+03,   784.389E+03,   784.389E+03
C:/temp/Job-40.odb,Step-1,Increment      1: Step Time =    1.000,"P-40-1",           878,       79.0349,       177.140,            0.,NA,NA,"",   1.09202E+06,   1.09830E+06,   1.09830E+06
C:/temp/Job-40.odb,Step-1,Increment      1: Step Time =    1.000,"P-40-1",           879,       175.046,       119.394,            0.,NA,NA,"",   927.244E+03,   967.759E+03,   967.759E+03
C:/temp/Job-40.odb,Step-1,Increment      1: Step Time =    1.000,"P-40-1",           880,       175.386,       80.1284,            0.,NA,NA,"",   928.768E+03,   969.552E+03,   969.552E+03
C:/temp/Job-40.odb,Step-1,Increment      1: Step Time =    1.000,"P-40-1",           881,       119.890,       175.739,            0.,NA,NA,"",   1.05247E+06,   1.06417E+06,   1.06417E+06
C:/temp/Job-40.odb,Step-1,Increment      1: Step Time =    1.000,"P-40-1",           882,       176.270,       99.0289,            0.,NA,NA,"",   839.739E+03,   906.213E+03,   906.213E+03
C:/temp/Job-40.odb,Step-1,Increment      1: Step Time =    1.000,"P-40-1",           883,       99.1295,       173.259,            0.,NA,NA,"",   1.04028E+06,   1.07739E+06,   1.07739E+06
C:/temp/Job-40.odb,Step-1,Increment      1: Step Time =    1.000,"P-40-1",           884,       100.613,       23.9056,            0.,NA,NA,"",   1.02257E+06,   1.05224E+06,   1.05224E+06
C:/temp/Job-40.odb,Step-1,Increment      1: Step Time =    1.000,"P-40-1",           885,       23.8649,       141.524,            0.,NA,NA,"",   907.155E+03,   965.378E+03,   965.378E+03
C:/temp/Job-40.odb,Step-1,Increment      1: Step Time =    1.000,"P-40-1",           886,       139.345,       23.5841,            0.,NA,NA,"",   1.08338E+06,   1.07097E+06,   1.07097E+06
C:/temp/Job-40.odb,Step-1,Increment      1: Step Time =    1.000,"P-40-1",           887,       21.1255,       58.6791,            0.,NA,NA,"",   892.588E+03,   957.107E+03,   957.107E+03
C:/temp/Job-40.odb,Step-1,Increment      1: Step Time =    1.000,"P-40-1",           888,       59.0953,       24.6309,            0.,NA,NA,"",   1.16667E+06,   1.15435E+06,   1.15435E+06
C:/temp/Job-40.odb,Step-1,Increment      1: Step Time =    1.000,"P-40-1",           889,       176.784,       138.870,            0.,NA,NA,"",   1.02480E+06,   1.03898E+06,   1.03898E+06
C:/temp/Job-40.odb,Step-1,Increment      1: Step Time =    1.000,"P-40-1",           890,       139.871,       174.466,            0.,NA,NA,"",   1.09557E+06,   1.08137E+06,   1.08137E+06
C:/temp/Job-40.odb,Step-1,Increment      1: Step Time =    1.000,"P-40-1",           891,       61.2238,       176.674,            0.,NA,NA,"",   1.15717E+06,   1.14601E+06,   1.14601E+06
C:/temp/Job-40.odb,Step-1,Increment      1: Step Time =    1.000,"P-40-1",           892,       174.323,       59.8871,            0.,NA,NA,"",   1.04072E+06,   1.04683E+06,   1.04683E+06
C:/temp/Job-40.odb,Step-1,Increment      1: Step Time =    1.000,"P-40-1",           893,       70.4342,       22.6729,            0.,NA,NA,"",   1.12632E+06,   1.12197E+06,   1.12197E+06
C:/temp/Job-40.odb,Step-1,Increment      1: Step Time =    1.000,"P-40-1",           894,       128.883,       176.959,            0.,NA,NA,"",   1.06580E+06,   1.06446E+06,   1.06446E+06
C:/temp/Job-40.odb,Step-1,Increment      1: Step Time =    1.000,"P-40-1",           895,       23.4023,       132.177,            0.,NA,NA,"",   818.658E+03,   884.105E+03,   884.105E+03
C:/temp/Job-40.odb,Step-1,Increment      1: Step Time =    1.000,"P-40-1",           896,       176.882,       70.9211,            0.,NA,NA,"",   982.155E+03,   1.01093E+06,   1.01093E+06
C:/temp/Job-40.odb,Step-1,Increment      1: Step Time =    1.000,"P-40-1",           897,       90.3939,       140.179,            0.,NA,NA,"",   1.39734E+06,   1.49791E+06,   1.49791E+06
C:/temp/Job-40.odb,Step-1,Increment      1: Step Time =    1.000,"P-40-1",           898,       109.884,       59.8351,            0.,NA,NA,"",   1.38127E+06,   1.48139E+06,   1.48139E+06
C:/temp/Job-40.odb,Step-1,Increment      1: Step Time =    1.000,"P-40-1",           899,       71.1112,       69.3775,            0.,NA,NA,"",   1.37580E+06,   1.27760E+06,   1.27760E+06
C:/temp/Job-40.odb,Step-1,Increment      1: Step Time =    1.000,"P-40-1",           900,       58.2028,       112.880,            0.,NA,NA,"",   693.910E+03,   641.805E+03,   641.805E+03
C:/temp/Job-40.odb,Step-1,Increment      1: Step Time =    1.000,"P-40-1",           901,       14.3430,       169.344,            0.,NA,NA,"",   1.06960E+06,   1.14301E+06,   1.14301E+06
C:/temp/Job-40.odb,Step-1,Increment      1: Step Time =    1.000,"P-40-1",           902,       169.620,       15.7310,            0.,NA,NA,"",   1.02229E+06,   1.01959E+06,   1.01959E+06
C:/temp/Job-40.odb,Step-1,Increment      1: Step Time =    1.000,"P-40-1",           903,       18.4872,       32.1224,            0.,NA,NA,"",   1.08654E+06,   1.14459E+06,   1.14459E+06
C:/temp/Job-40.odb,Step-1,Increment      1: Step Time =    1.000,"P-40-1",           904,       30.3330,       12.7358,            0.,NA,NA,"",   1.20923E+06,   1.21369E+06,   1.21369E+06
C:/temp/Job-40.odb,Step-1,Increment      1: Step Time =    1.000,"P-40-1",           905,       166.506,       186.346,            0.,NA,NA,"",   1.01967E+06,   1.01693E+06,   1.01693E+06
C:/temp/Job-40.odb,Step-1,Increment      1: Step Time =    1.000,"P-40-1",           906,       184.357,       169.484,            0.,NA,NA,"",   1.01138E+06,   1.01693E+06,   1.01693E+06
C:/temp/Job-40.odb,Step-1,Increment      1: Step Time =    1.000,"P-40-1",           907,       186.443,       33.5875,            0.,NA,NA,"",   1.00521E+06,   1.01414E+06,   1.01414E+06
C:/temp/Job-40.odb,Step-1,Increment      1: Step Time =    1.000,"P-40-1",           908,       30.5142,       184.094,            0.,NA,NA,"",   1.20332E+06,   1.20986E+06,   1.20986E+06
C:/temp/Job-40.odb,Step-1,Increment      1: Step Time =    1.000,"P-40-1",           909,       55.4094,       185.891,            0.,NA,NA,"",   1.12957E+06,   1.12358E+06,   1.12358E+06
C:/temp/Job-40.odb,Step-1,Increment      1: Step Time =    1.000,"P-40-1",           910,       183.694,       54.3440,            0.,NA,NA,"",   1.00102E+06,   1.02626E+06,   1.02626E+06
C:/temp/Job-40.odb,Step-1,Increment      1: Step Time =    1.000,"P-40-1",           911,       14.8359,       146.141,            0.,NA,NA,"",   894.217E+03,   973.277E+03,   973.277E+03
C:/temp/Job-40.odb,Step-1,Increment      1: Step Time =    1.000,"P-40-1",           912,       144.017,       13.8342,            0.,NA,NA,"",   1.02268E+06,   1.01696E+06,   1.01696E+06
C:/temp/Job-40.odb,Step-1,Increment      1: Step Time =    1.000,"P-40-1",           913,       13.7261,       53.4608,            0.,NA,NA,"",   891.149E+03,   972.380E+03,   972.380E+03
C:/temp/Job-40.odb,Step-1,Increment      1: Step Time =    1.000,"P-40-1",           914,       54.4574,       14.9990,            0.,NA,NA,"",   1.13711E+06,   1.13039E+06,   1.13039E+06
C:/temp/Job-40.odb,Step-1,Increment      1: Step Time =    1.000,"P-40-1",           915,       186.328,       143.851,            0.,NA,NA,"",   985.244E+03,   1.01897E+06,   1.01897E+06
C:/temp/Job-40.odb,Step-1,Increment      1: Step Time =    1.000,"P-40-1",           916,       145.670,       183.615,            0.,NA,NA,"",   1.03845E+06,   1.03058E+06,   1.03058E+06
C:/temp/Job-40.odb,Step-1,Increment      1: Step Time =    1.000,"P-40-1",           917,       53.6595,       99.9376,            0.,NA,NA,"",   381.568E+03,   417.754E+03,   417.754E+03
C:/temp/Job-40.odb,Step-1,Increment      1: Step Time =    1.000,"P-40-1",           918,       139.836,       80.1867,            0.,NA,NA,"",   1.12585E+06,   964.687E+03,   964.687E+03
C:/temp/Job-40.odb,Step-1,Increment      1: Step Time =    1.000,"P-40-1",           919,       61.4892,       121.717,            0.,NA,NA,"",   1.03967E+06,   932.679E+03,   932.679E+03
C:/temp/Job-40.odb,Step-1,Increment      1: Step Time =    1.000,"P-40-1",           920,       138.913,       92.7261,            0.,NA,NA,"",   616.557E+03,   512.008E+03,   512.008E+03
C:/temp/Job-40.odb,Step-1,Increment      1: Step Time =    1.000,"P-40-1",           921,       120.578,       66.0551,            0.,NA,NA,"",   1.51660E+06,   1.49412E+06,   1.49412E+06
C:/temp/Job-40.odb,Step-1,Increment      1: Step Time =    1.000,"P-40-1",           922,       123.154,       133.850,            0.,NA,NA,"",   1.50586E+06,   1.45160E+06,   1.45160E+06
C:/temp/Job-40.odb,Step-1,Increment      1: Step Time =    1.000,"P-40-1",           923,       78.4027,       132.256,            0.,NA,NA,"",   1.46872E+06,   1.42943E+06,   1.42943E+06
C:/temp/Job-40.odb,Step-1,Increment      1: Step Time =    1.000,"P-40-1",           924,       96.9359,       142.041,            0.,NA,NA,"",   1.31798E+06,   1.44465E+06,   1.44465E+06
C:/temp/Job-40.odb,Step-1,Increment      1: Step Time =    1.000,"P-40-1",           925,       103.633,       57.9537,            0.,NA,NA,"",   1.32343E+06,   1.45380E+06,   1.45380E+06
C:/temp/Job-40.odb,Step-1,Increment      1: Step Time =    1.000,"P-40-1",           926,       146.434,       99.7357,            0.,NA,NA,"",   500.553E+03,   504.907E+03,   504.907E+03
C:/temp/Job-40.odb,Step-1,Increment      1: Step Time =    1.000,"P-40-1",           927,       119.474,       180.567,            0.,NA,NA,"",   1.01884E+06,   1.02750E+06,   1.02750E+06
C:/temp/Job-40.odb,Step-1,Increment      1: Step Time =    1.000,"P-40-1",           928,       80.6472,       19.6575,            0.,NA,NA,"",   1.06398E+06,   1.07045E+06,   1.07045E+06
C:/temp/Job-40.odb,Step-1,Increment      1: Step Time =    1.000,"P-40-1",           929,       180.487,       80.5381,            0.,NA,NA,"",   921.330E+03,   978.907E+03,   978.907E+03
C:/temp/Job-40.odb,Step-1,Increment      1: Step Time =    1.000,"P-40-1",           930,       19.7824,       120.162,            0.,NA,NA,"",   702.222E+03,   780.107E+03,   780.107E+03
C:/temp/Job-40.odb,Step-1,Increment      1: Step Time =    1.000,"P-40-1",           931,       180.296,       89.9792,            0.,NA,NA,"",   877.977E+03,   947.776E+03,   947.776E+03
C:/temp/Job-40.odb,Step-1,Increment      1: Step Time =    1.000,"P-40-1",           932,       109.739,       179.377,            0.,NA,NA,"",   1.00841E+06,   1.02793E+06,   1.02793E+06
C:/temp/Job-40.odb,Step-1,Increment      1: Step Time =    1.000,"P-40-1",           933,       90.4143,       19.3113,            0.,NA,NA,"",   1.02228E+06,   1.03902E+06,   1.03902E+06
C:/temp/Job-40.odb,Step-1,Increment      1: Step Time =    1.000,"P-40-1",           934,       20.2673,       110.465,            0.,NA,NA,"",   637.565E+03,   718.112E+03,   718.112E+03
C:/temp/Job-40.odb,Step-1,Increment      1: Step Time =    1.000,"P-40-1",           935,       57.7316,       84.5401,            0.,NA,NA,"",   779.718E+03,   720.744E+03,   720.744E+03
C:/temp/Job-40.odb,Step-1,Increment      1: Step Time =    1.000,"P-40-1",           936,       51.9330,       110.403,            0.,NA,NA,"",   595.587E+03,   606.178E+03,   606.178E+03
C:/temp/Job-40.odb,Step-1,Increment      1: Step Time =    1.000,"P-40-1",           937,       60.0318,       117.227,            0.,NA,NA,"",   873.253E+03,   785.844E+03,   785.844E+03
C:/temp/Job-40.odb,Step-1,Increment      1: Step Time =    1.000,"P-40-1",           938,       75.7584,       67.5104,            0.,NA,NA,"",   1.44802E+06,   1.37893E+06,   1.37893E+06
C:/temp/Job-40.odb,Step-1,Increment      1: Step Time =    1.000,"P-40-1",           939,       71.5329,       65.9160,            0.,NA,NA,"",   1.39512E+06,   1.31248E+06,   1.31248E+06
C:/temp/Job-40.odb,Step-1,Increment      1: Step Time =    1.000,"P-40-1",           940,       8.86351,       56.4523,            0.,NA,NA,"",   842.385E+03,   933.650E+03,   933.650E+03
C:/temp/Job-40.odb,Step-1,Increment      1: Step Time =    1.000,"P-40-1",           941,       55.3915,       190.759,            0.,NA,NA,"",   1.10753E+06,   1.10444E+06,   1.10444E+06
C:/temp/Job-40.odb,Step-1,Increment      1: Step Time =    1.000,"P-40-1",           942,       144.269,       9.18894,            0.,NA,NA,"",   998.592E+03,   995.678E+03,   995.678E+03
C:/temp/Job-40.odb,Step-1,Increment      1: Step Time =    1.000,"P-40-1",           943,       190.912,       144.176,            0.,NA,NA,"",   967.427E+03,   1.00975E+06,   1.00975E+06
C:/temp/Job-40.odb,Step-1,Increment      1: Step Time =    1.000,"P-40-1",           944,       25.8726,       105.623,            0.,NA,NA,"",   606.755E+03,   684.119E+03,   684.119E+03
C:/temp/Job-40.odb,Step-1,Increment      1: Step Time =    1.000,"P-40-1",           945,       95.4277,       24.8327,            0.,NA,NA,"",   1.03860E+06,   1.06841E+06,   1.06841E+06
C:/temp/Job-40.odb,Step-1,Increment      1: Step Time =    1.000,"P-40-1",           946,       174.765,       94.6572,            0.,NA,NA,"",   841.075E+03,   902.366E+03,   902.366E+03
C:/temp/Job-40.odb,Step-1,Increment      1: Step Time =    1.000,"P-40-1",           947,       104.733,       173.735,            0.,NA,NA,"",   1.03543E+06,   1.06910E+06,   1.06910E+06
C:/temp/Job-40.odb,Step-1,Increment      1: Step Time =    1.000,"P-40-1",           948,       26.0119,       85.2076,            0.,NA,NA,"",   663.589E+03,   737.477E+03,   737.477E+03
C:/temp/Job-40.odb,Step-1,Increment      1: Step Time =    1.000,"P-40-1",           949,       25.2744,       115.638,            0.,NA,NA,"",   671.697E+03,   745.546E+03,   745.546E+03
C:/temp/Job-40.odb,Step-1,Increment      1: Step Time =    1.000,"P-40-1",           950,       113.378,       25.7327,            0.,NA,NA,"",   1.04343E+06,   1.06696E+06,   1.06696E+06
C:/temp/Job-40.odb,Step-1,Increment      1: Step Time =    1.000,"P-40-1",           951,       86.0422,       23.9094,            0.,NA,NA,"",   1.06687E+06,   1.08443E+06,   1.08443E+06
C:/temp/Job-40.odb,Step-1,Increment      1: Step Time =    1.000,"P-40-1",           952,       174.747,       114.235,            0.,NA,NA,"",   891.414E+03,   940.241E+03,   940.241E+03
C:/temp/Job-40.odb,Step-1,Increment      1: Step Time =    1.000,"P-40-1",           953,       115.284,       175.072,            0.,NA,NA,"",   1.04501E+06,   1.06444E+06,   1.06444E+06
C:/temp/Job-40.odb,Step-1,Increment      1: Step Time =    1.000,"P-40-1",           954,       83.0266,       174.749,            0.,NA,NA,"",   1.08998E+06,   1.10379E+06,   1.10379E+06
C:/temp/Job-40.odb,Step-1,Increment      1: Step Time =    1.000,"P-40-1",           955,       174.500,       85.1652,            0.,NA,NA,"",   894.654E+03,   941.770E+03,   941.770E+03
C:/temp/Job-40.odb,Step-1,Increment      1: Step Time =    1.000,"P-40-1",           956,       28.7216,       135.351,            0.,NA,NA,"",   883.239E+03,   932.121E+03,   932.121E+03
C:/temp/Job-40.odb,Step-1,Increment      1: Step Time =    1.000,"P-40-1",           957,       138.858,       27.9962,            0.,NA,NA,"",   1.11285E+06,   1.09681E+06,   1.09681E+06
C:/temp/Job-40.odb,Step-1,Increment      1: Step Time =    1.000,"P-40-1",           958,       25.2327,       62.5912,            0.,NA,NA,"",   883.605E+03,   939.547E+03,   939.547E+03
C:/temp/Job-40.odb,Step-1,Increment      1: Step Time =    1.000,"P-40-1",           959,       64.5113,       25.9205,            0.,NA,NA,"",   1.16294E+06,   1.15230E+06,   1.15230E+06
C:/temp/Job-40.odb,Step-1,Increment      1: Step Time =    1.000,"P-40-1",           960,       172.390,       138.203,            0.,NA,NA,"",   1.04721E+06,   1.04872E+06,   1.04872E+06
C:/temp/Job-40.odb,Step-1,Increment      1: Step Time =    1.000,"P-40-1",           961,       134.573,       173.297,            0.,NA,NA,"",   1.10331E+06,   1.09267E+06,   1.09267E+06
C:/temp/Job-40.odb,Step-1,Increment      1: Step Time =    1.000,"P-40-1",           962,       62.8826,       172.356,            0.,NA,NA,"",   1.17806E+06,   1.16495E+06,   1.16495E+06
C:/temp/Job-40.odb,Step-1,Increment      1: Step Time =    1.000,"P-40-1",           963,       173.082,       65.1363,            0.,NA,NA,"",   1.03021E+06,   1.03720E+06,   1.03720E+06
C:/temp/Job-40.odb,Step-1,Increment      1: Step Time =    1.000,"P-40-1",           964,       18.7599,       164.465,            0.,NA,NA,"",   1.05898E+06,   1.11926E+06,   1.11926E+06
C:/temp/Job-40.odb,Step-1,Increment      1: Step Time =    1.000,"P-40-1",           965,       164.780,       20.9418,            0.,NA,NA,"",   1.04356E+06,   1.03653E+06,   1.03653E+06
C:/temp/Job-40.odb,Step-1,Increment      1: Step Time =    1.000,"P-40-1",           966,       174.581,       15.8475,            0.,NA,NA,"",   1.01639E+06,   1.01539E+06,   1.01539E+06
C:/temp/Job-40.odb,Step-1,Increment      1: Step Time =    1.000,"P-40-1",           967,       14.1022,       173.607,            0.,NA,NA,"",   1.10801E+06,   1.17719E+06,   1.17719E+06
C:/temp/Job-40.odb,Step-1,Increment      1: Step Time =    1.000,"P-40-1",           968,       26.5187,       12.5555,            0.,NA,NA,"",   1.22585E+06,   1.23394E+06,   1.23394E+06
C:/temp/Job-40.odb,Step-1,Increment      1: Step Time =    1.000,"P-40-1",           969,       14.8114,       27.7975,            0.,NA,NA,"",   1.10000E+06,   1.16793E+06,   1.16793E+06
C:/temp/Job-40.odb,Step-1,Increment      1: Step Time =    1.000,"P-40-1",           970,       33.5777,       17.1234,            0.,NA,NA,"",   1.19637E+06,   1.20020E+06,   1.20020E+06
C:/temp/Job-40.odb,Step-1,Increment      1: Step Time =    1.000,"P-40-1",           971,       19.0111,       35.6979,            0.,NA,NA,"",   1.06028E+06,   1.11953E+06,   1.11953E+06
C:/temp/Job-40.odb,Step-1,Increment      1: Step Time =    1.000,"P-40-1",           972,       184.209,       174.482,            0.,NA,NA,"",   1.01029E+06,   1.01375E+06,   1.01375E+06
C:/temp/Job-40.odb,Step-1,Increment      1: Step Time =    1.000,"P-40-1",           973,       170.763,       186.315,            0.,NA,NA,"",   1.01679E+06,   1.01498E+06,   1.01498E+06
C:/temp/Job-40.odb,Step-1,Increment      1: Step Time =    1.000,"P-40-1",           974,       162.823,       183.142,            0.,NA,NA,"",   1.03231E+06,   1.02694E+06,   1.02694E+06
C:/temp/Job-40.odb,Step-1,Increment      1: Step Time =    1.000,"P-40-1",           975,       179.320,       164.488,            0.,NA,NA,"",   1.02905E+06,   1.03192E+06,   1.03192E+06
C:/temp/Job-40.odb,Step-1,Increment      1: Step Time =    1.000,"P-40-1",           976,       183.298,       37.3075,            0.,NA,NA,"",   1.01429E+06,   1.02307E+06,   1.02307E+06
C:/temp/Job-40.odb,Step-1,Increment      1: Step Time =    1.000,"P-40-1",           977,       35.3394,       179.000,            0.,NA,NA,"",   1.18799E+06,   1.19142E+06,   1.19142E+06
C:/temp/Job-40.odb,Step-1,Increment      1: Step Time =    1.000,"P-40-1",           978,       186.402,       29.2834,            0.,NA,NA,"",   1.00586E+06,   1.01218E+06,   1.01218E+06
C:/temp/Job-40.odb,Step-1,Increment      1: Step Time =    1.000,"P-40-1",           979,       25.5321,       183.855,            0.,NA,NA,"",   1.21474E+06,   1.23005E+06,   1.23005E+06
C:/temp/Job-40.odb,Step-1,Increment      1: Step Time =    1.000,"P-40-1",           980,       102.910,       144.300,            0.,NA,NA,"",   1.26065E+06,   1.37950E+06,   1.37950E+06
C:/temp/Job-40.odb,Step-1,Increment      1: Step Time =    1.000,"P-40-1",           981,       97.3158,       56.5843,            0.,NA,NA,"",   1.27770E+06,   1.40246E+06,   1.40246E+06
C:/temp/Job-40.odb,Step-1,Increment      1: Step Time =    1.000,"P-40-1",           982,       58.1921,       80.1525,            0.,NA,NA,"",   925.361E+03,   849.427E+03,   849.427E+03
C:/temp/Job-40.odb,Step-1,Increment      1: Step Time =    1.000,"P-40-1",           983,       57.2091,       89.2312,            0.,NA,NA,"",   620.306E+03,   587.972E+03,   587.972E+03
C:/temp/Job-40.odb,Step-1,Increment      1: Step Time =    1.000,"P-40-1",           984,       25.1299,       125.699,            0.,NA,NA,"",   766.482E+03,   832.940E+03,   832.940E+03
C:/temp/Job-40.odb,Step-1,Increment      1: Step Time =    1.000,"P-40-1",           985,       176.040,       75.4594,            0.,NA,NA,"",   958.756E+03,   992.768E+03,   992.768E+03
C:/temp/Job-40.odb,Step-1,Increment      1: Step Time =    1.000,"P-40-1",           986,       75.1427,       23.8906,            0.,NA,NA,"",   1.11670E+06,   1.11773E+06,   1.11773E+06
C:/temp/Job-40.odb,Step-1,Increment      1: Step Time =    1.000,"P-40-1",           987,       124.362,       176.210,            0.,NA,NA,"",   1.06094E+06,   1.06571E+06,   1.06571E+06
C:/temp/Job-40.odb,Step-1,Increment      1: Step Time =    1.000,"P-40-1",           988,       57.9168,       127.951,            0.,NA,NA,"",   1.11634E+06,   1.03725E+06,   1.03725E+06
C:/temp/Job-40.odb,Step-1,Increment      1: Step Time =    1.000,"P-40-1",           989,       139.988,       74.8102,            0.,NA,NA,"",   1.27024E+06,   1.11622E+06,   1.11622E+06
C:/temp/Job-40.odb,Step-1,Increment      1: Step Time =    1.000,"P-40-1",           990,       123.135,       141.359,            0.,NA,NA,"",   1.40843E+06,   1.38667E+06,   1.38667E+06
C:/temp/Job-40.odb,Step-1,Increment      1: Step Time =    1.000,"P-40-1",           991,       121.972,       62.2559,            0.,NA,NA,"",   1.45556E+06,   1.43151E+06,   1.43151E+06
C:/temp/Job-40.odb,Step-1,Increment      1: Step Time =    1.000,"P-40-1",           992,       77.2049,       137.957,            0.,NA,NA,"",   1.42788E+06,   1.39722E+06,   1.39722E+06
C:/temp/Job-40.odb,Step-1,Increment      1: Step Time =    1.000,"P-40-1",           993,       25.2774,       95.7021,            0.,NA,NA,"",   605.133E+03,   683.164E+03,   683.164E+03
C:/temp/Job-40.odb,Step-1,Increment      1: Step Time =    1.000,"P-40-1",           994,       105.394,       24.6415,            0.,NA,NA,"",   1.02438E+06,   1.05428E+06,   1.05428E+06
C:/temp/Job-40.odb,Step-1,Increment      1: Step Time =    1.000,"P-40-1",           995,       173.669,       102.745,            0.,NA,NA,"",   830.444E+03,   890.606E+03,   890.606E+03
C:/temp/Job-40.odb,Step-1,Increment      1: Step Time =    1.000,"P-40-1",           996,       93.8657,       174.586,            0.,NA,NA,"",   1.04645E+06,   1.07659E+06,   1.07659E+06
C:/temp/Job-40.odb,Step-1,Increment      1: Step Time =    1.000,"P-40-1",           997,       146.131,       93.1804,            0.,NA,NA,"",   640.575E+03,   610.212E+03,   610.212E+03
C:/temp/Job-40.odb,Step-1,Increment      1: Step Time =    1.000,"P-40-1",           998,       143.092,       108.851,            0.,NA,NA,"",   683.934E+03,   616.636E+03,   616.636E+03
C:/temp/Job-40.odb,Step-1,Increment      1: Step Time =    1.000,"P-40-1",           999,       142.624,       83.2971,            0.,NA,NA,"",   991.355E+03,   869.213E+03,   869.213E+03
C:/temp/Job-40.odb,Step-1,Increment      1: Step Time =    1.000,"P-40-1",          1000,       76.5141,       62.7702,            0.,NA,NA,"",   1.44300E+06,   1.40295E+06,   1.40295E+06
C:/temp/Job-40.odb,Step-1,Increment      1: Step Time =    1.000,"P-40-1",          1001,       142.267,       89.6442,            0.,NA,NA,"",   751.441E+03,   661.911E+03,   661.911E+03
C:/temp/Job-40.odb,Step-1,Increment      1: Step Time =    1.000,"P-40-1",          1002,       145.991,       115.227,            0.,NA,NA,"",   930.081E+03,   842.812E+03,   842.812E+03
C:/temp/Job-40.odb,Step-1,Increment      1: Step Time =    1.000,"P-40-1",          1003,       149.497,       89.9103,            0.,NA,NA,"",   752.984E+03,   723.656E+03,   723.656E+03
C:/temp/Job-40.odb,Step-1,Increment      1: Step Time =    1.000,"P-40-1",          1004,       148.578,       111.099,            0.,NA,NA,"",   782.239E+03,    741.91E+03,    741.91E+03
C:/temp/Job-40.odb,Step-1,Increment      1: Step Time =    1.000,"P-40-1",          1005,       24.8105,       65.9586,            0.,NA,NA,"",   846.579E+03,   905.893E+03,   905.893E+03
C:/temp/Job-40.odb,Step-1,Increment      1: Step Time =    1.000,"P-40-1",          1006,       176.200,       129.271,            0.,NA,NA,"",   985.874E+03,   1.01213E+06,   1.01213E+06
C:/temp/Job-40.odb,Step-1,Increment      1: Step Time =    1.000,"P-40-1",          1007,       129.819,       24.3221,            0.,NA,NA,"",   1.07845E+06,   1.07451E+06,   1.07451E+06
C:/temp/Job-40.odb,Step-1,Increment      1: Step Time =    1.000,"P-40-1",          1008,       69.4803,       177.234,            0.,NA,NA,"",   1.13214E+06,   1.12679E+06,   1.12679E+06
C:/temp/Job-40.odb,Step-1,Increment      1: Step Time =    1.000,"P-40-1",          1009,       37.3141,       25.1601,            0.,NA,NA,"",   1.18208E+06,   1.18420E+06,   1.18420E+06
C:/temp/Job-40.odb,Step-1,Increment      1: Step Time =    1.000,"P-40-1",          1010,       23.2514,       35.1319,            0.,NA,NA,"",   1.09072E+06,   1.13487E+06,   1.13487E+06
C:/temp/Job-40.odb,Step-1,Increment      1: Step Time =    1.000,"P-40-1",          1011,       23.9288,       161.301,            0.,NA,NA,"",   1.06714E+06,   1.11224E+06,   1.11224E+06
C:/temp/Job-40.odb,Step-1,Increment      1: Step Time =    1.000,"P-40-1",          1012,       164.333,       25.8426,            0.,NA,NA,"",   1.05968E+06,   1.04961E+06,   1.04961E+06
C:/temp/Job-40.odb,Step-1,Increment      1: Step Time =    1.000,"P-40-1",          1013,       178.048,       38.3356,            0.,NA,NA,"",   1.03583E+06,   1.03788E+06,   1.03788E+06
C:/temp/Job-40.odb,Step-1,Increment      1: Step Time =    1.000,"P-40-1",          1014,       35.6192,       174.162,            0.,NA,NA,"",   1.17854E+06,   1.18390E+06,   1.18390E+06
C:/temp/Job-40.odb,Step-1,Increment      1: Step Time =    1.000,"P-40-1",          1015,       161.955,       177.833,            0.,NA,NA,"",   1.05301E+06,   1.04381E+06,   1.04381E+06
C:/temp/Job-40.odb,Step-1,Increment      1: Step Time =    1.000,"P-40-1",          1016,       174.705,       163.915,            0.,NA,NA,"",   1.04724E+06,   1.04443E+06,   1.04443E+06
C:/temp/Job-40.odb,Step-1,Increment      1: Step Time =    1.000,"P-40-1",          1017,       80.4441,       69.3522,            0.,NA,NA,"",   1.51149E+06,   1.48623E+06,   1.48623E+06
C:/temp/Job-40.odb,Step-1,Increment      1: Step Time =    1.000,"P-40-1",          1018,       63.2591,       67.1705,            0.,NA,NA,"",   1.27807E+06,   1.18847E+06,   1.18847E+06
C:/temp/Job-40.odb,Step-1,Increment      1: Step Time =    1.000,"P-40-1",          1019,       30.2791,       111.043,            0.,NA,NA,"",   633.686E+03,   703.894E+03,   703.894E+03
C:/temp/Job-40.odb,Step-1,Increment      1: Step Time =    1.000,"P-40-1",          1020,       88.5978,       27.9906,            0.,NA,NA,"",   1.07913E+06,   1.10687E+06,   1.10687E+06
C:/temp/Job-40.odb,Step-1,Increment      1: Step Time =    1.000,"P-40-1",          1021,       170.263,       87.2216,            0.,NA,NA,"",   869.944E+03,   908.848E+03,   908.848E+03
C:/temp/Job-40.odb,Step-1,Increment      1: Step Time =    1.000,"P-40-1",          1022,       29.8361,       77.0572,            0.,NA,NA,"",   754.004E+03,   812.452E+03,   812.452E+03
C:/temp/Job-40.odb,Step-1,Increment      1: Step Time =    1.000,"P-40-1",          1023,       29.0193,       120.321,            0.,NA,NA,"",   720.958E+03,   785.806E+03,   785.806E+03
C:/temp/Job-40.odb,Step-1,Increment      1: Step Time =    1.000,"P-40-1",          1024,       76.9713,       30.6285,            0.,NA,NA,"",   1.15354E+06,   1.15929E+06,   1.15929E+06
C:/temp/Job-40.odb,Step-1,Increment      1: Step Time =    1.000,"P-40-1",          1025,       170.036,       119.171,            0.,NA,NA,"",   929.942E+03,   954.528E+03,   954.528E+03
C:/temp/Job-40.odb,Step-1,Increment      1: Step Time =    1.000,"P-40-1",          1026,       78.5051,       171.866,            0.,NA,NA,"",   1.13108E+06,   1.13914E+06,   1.13914E+06
C:/temp/Job-40.odb,Step-1,Increment      1: Step Time =    1.000,"P-40-1",          1027,       120.319,       170.947,            0.,NA,NA,"",   1.08750E+06,   1.10240E+06,   1.10240E+06
C:/temp/Job-40.odb,Step-1,Increment      1: Step Time =    1.000,"P-40-1",          1028,       170.446,       79.3242,            0.,NA,NA,"",   940.489E+03,   962.649E+03,   962.649E+03
C:/temp/Job-40.odb,Step-1,Increment      1: Step Time =    1.000,"P-40-1",          1029,       29.8448,       139.988,            0.,NA,NA,"",   937.072E+03,   978.535E+03,   978.535E+03
C:/temp/Job-40.odb,Step-1,Increment      1: Step Time =    1.000,"P-40-1",          1030,       143.299,       29.1294,            0.,NA,NA,"",   1.11880E+06,   1.09892E+06,   1.09892E+06
C:/temp/Job-40.odb,Step-1,Increment      1: Step Time =    1.000,"P-40-1",          1031,       59.1745,       30.5487,            0.,NA,NA,"",   1.19685E+06,   1.17946E+06,   1.17946E+06
C:/temp/Job-40.odb,Step-1,Increment      1: Step Time =    1.000,"P-40-1",          1032,       29.1438,       54.8603,            0.,NA,NA,"",   977.268E+03,   1.01714E+06,   1.01714E+06
C:/temp/Job-40.odb,Step-1,Increment      1: Step Time =    1.000,"P-40-1",          1033,       171.166,       142.614,            0.,NA,NA,"",   1.06630E+06,   1.06080E+06,   1.06080E+06
C:/temp/Job-40.odb,Step-1,Increment      1: Step Time =    1.000,"P-40-1",          1034,       139.771,       168.756,            0.,NA,NA,"",   1.13921E+06,   1.11806E+06,   1.11806E+06
C:/temp/Job-40.odb,Step-1,Increment      1: Step Time =    1.000,"P-40-1",          1035,       57.8372,       170.736,            0.,NA,NA,"",   1.19358E+06,   1.17676E+06,   1.17676E+06
C:/temp/Job-40.odb,Step-1,Increment      1: Step Time =    1.000,"P-40-1",          1036,       168.319,       59.6499,            0.,NA,NA,"",   1.08320E+06,   1.06847E+06,   1.06847E+06
C:/temp/Job-40.odb,Step-1,Increment      1: Step Time =    1.000,"P-40-1",          1037,       174.726,       10.5041,            0.,NA,NA,"",   1.00868E+06,   1.00822E+06,   1.00822E+06
C:/temp/Job-40.odb,Step-1,Increment      1: Step Time =    1.000,"P-40-1",          1038,       17.7147,       174.403,            0.,NA,NA,"",   1.13346E+06,   1.18801E+06,   1.18801E+06
C:/temp/Job-40.odb,Step-1,Increment      1: Step Time =    1.000,"P-40-1",          1039,       174.238,       21.2584,            0.,NA,NA,"",   1.02604E+06,   1.02408E+06,   1.02408E+06
C:/temp/Job-40.odb,Step-1,Increment      1: Step Time =    1.000,"P-40-1",          1040,       13.8286,       160.329,            0.,NA,NA,"",   993.351E+03,   1.07193E+06,   1.07193E+06
C:/temp/Job-40.odb,Step-1,Increment      1: Step Time =    1.000,"P-40-1",          1041,       160.466,       21.0665,            0.,NA,NA,"",   1.05086E+06,   1.04183E+06,   1.04183E+06
C:/temp/Job-40.odb,Step-1,Increment      1: Step Time =    1.000,"P-40-1",          1042,       9.82384,       31.0717,            0.,NA,NA,"",   1.03331E+06,   1.12320E+06,   1.12320E+06
C:/temp/Job-40.odb,Step-1,Increment      1: Step Time =    1.000,"P-40-1",          1043,       38.9311,       14.1917,            0.,NA,NA,"",   1.18041E+06,   1.17913E+06,   1.17913E+06
C:/temp/Job-40.odb,Step-1,Increment      1: Step Time =    1.000,"P-40-1",          1044,       26.4000,       15.9567,            0.,NA,NA,"",   1.21393E+06,   1.22698E+06,   1.22698E+06
C:/temp/Job-40.odb,Step-1,Increment      1: Step Time =    1.000,"P-40-1",          1045,       18.5251,       29.0269,            0.,NA,NA,"",   1.11071E+06,   1.16656E+06,   1.16656E+06
C:/temp/Job-40.odb,Step-1,Increment      1: Step Time =    1.000,"P-40-1",          1046,       16.7435,       44.4481,            0.,NA,NA,"",   977.510E+03,   1.04870E+06,   1.04870E+06
C:/temp/Job-40.odb,Step-1,Increment      1: Step Time =    1.000,"P-40-1",          1047,       178.904,       174.078,            0.,NA,NA,"",   1.02206E+06,   1.02280E+06,   1.02280E+06
C:/temp/Job-40.odb,Step-1,Increment      1: Step Time =    1.000,"P-40-1",          1048,       171.156,       181.657,            0.,NA,NA,"",   1.02458E+06,   1.02196E+06,   1.02196E+06
C:/temp/Job-40.odb,Step-1,Increment      1: Step Time =    1.000,"P-40-1",          1049,       189.514,       174.671,            0.,NA,NA,"",   1.00219E+06,   1.00684E+06,   1.00684E+06
C:/temp/Job-40.odb,Step-1,Increment      1: Step Time =    1.000,"P-40-1",          1050,       158.531,       185.942,            0.,NA,NA,"",   1.02608E+06,   1.02115E+06,   1.02115E+06
C:/temp/Job-40.odb,Step-1,Increment      1: Step Time =    1.000,"P-40-1",          1051,       179.213,       160.129,            0.,NA,NA,"",   1.03090E+06,   1.03534E+06,   1.03534E+06
C:/temp/Job-40.odb,Step-1,Increment      1: Step Time =    1.000,"P-40-1",          1052,       25.3006,       189.273,            0.,NA,NA,"",   1.23094E+06,   1.23852E+06,   1.23852E+06
C:/temp/Job-40.odb,Step-1,Increment      1: Step Time =    1.000,"P-40-1",          1053,       26.1508,       178.742,            0.,NA,NA,"",   1.18764E+06,   1.20869E+06,   1.20869E+06
C:/temp/Job-40.odb,Step-1,Increment      1: Step Time =    1.000,"P-40-1",          1054,       181.822,       28.9436,            0.,NA,NA,"",   1.01566E+06,   1.01935E+06,   1.01935E+06
C:/temp/Job-40.odb,Step-1,Increment      1: Step Time =    1.000,"P-40-1",          1055,       39.8216,       178.838,            0.,NA,NA,"",   1.18435E+06,   1.18232E+06,   1.18232E+06
C:/temp/Job-40.odb,Step-1,Increment      1: Step Time =    1.000,"P-40-1",          1056,       186.067,       41.5643,            0.,NA,NA,"",   1.00374E+06,   1.01891E+06,   1.01891E+06
C:/temp/Job-40.odb,Step-1,Increment      1: Step Time =    1.000,"P-40-1",          1057,       153.689,       9.71462,            0.,NA,NA,"",   1.01080E+06,   1.00769E+06,   1.00769E+06
C:/temp/Job-40.odb,Step-1,Increment      1: Step Time =    1.000,"P-40-1",          1058,       190.386,       153.605,            0.,NA,NA,"",   985.723E+03,   1.01096E+06,   1.01096E+06
C:/temp/Job-40.odb,Step-1,Increment      1: Step Time =    1.000,"P-40-1",          1059,       46.1632,       190.609,            0.,NA,NA,"",   1.14474E+06,   1.14226E+06,   1.14226E+06
C:/temp/Job-40.odb,Step-1,Increment      1: Step Time =    1.000,"P-40-1",          1060,       54.0294,       79.4079,            0.,NA,NA,"",   889.673E+03,   845.184E+03,   845.184E+03
C:/temp/Job-40.odb,Step-1,Increment      1: Step Time =    1.000,"P-40-1",          1061,       62.2017,       75.9898,            0.,NA,NA,"",   1.12160E+06,   1.00927E+06,   1.00927E+06
C:/temp/Job-40.odb,Step-1,Increment      1: Step Time =    1.000,"P-40-1",          1062,       27.4272,       130.652,            0.,NA,NA,"",   826.242E+03,   882.933E+03,   882.933E+03
C:/temp/Job-40.odb,Step-1,Increment      1: Step Time =    1.000,"P-40-1",          1063,       172.035,       69.9556,            0.,NA,NA,"",   1.01015E+06,   1.02013E+06,   1.02013E+06
C:/temp/Job-40.odb,Step-1,Increment      1: Step Time =    1.000,"P-40-1",          1064,       69.1742,       26.9254,            0.,NA,NA,"",   1.15577E+06,   1.14915E+06,   1.14915E+06
C:/temp/Job-40.odb,Step-1,Increment      1: Step Time =    1.000,"P-40-1",          1065,       129.667,       172.193,            0.,NA,NA,"",   1.10423E+06,   1.10014E+06,   1.10014E+06
C:/temp/Job-40.odb,Step-1,Increment      1: Step Time =    1.000,"P-40-1",          1066,       102.442,       134.083,            0.,NA,NA,"",   1.60882E+06,   1.76440E+06,   1.76440E+06
C:/temp/Job-40.odb,Step-1,Increment      1: Step Time =    1.000,"P-40-1",          1067,       95.0287,       63.3209,            0.,NA,NA,"",   1.46417E+06,   1.60599E+06,   1.60599E+06
C:/temp/Job-40.odb,Step-1,Increment      1: Step Time =    1.000,"P-40-1",          1068,       59.8567,       132.192,            0.,NA,NA,"",   1.20865E+06,   1.12820E+06,   1.12820E+06
C:/temp/Job-40.odb,Step-1,Increment      1: Step Time =    1.000,"P-40-1",          1069,       138.252,       69.5213,            0.,NA,NA,"",   1.34979E+06,   1.20827E+06,   1.20827E+06
C:/temp/Job-40.odb,Step-1,Increment      1: Step Time =    1.000,"P-40-1",          1070,       119.517,       144.925,            0.,NA,NA,"",   1.34729E+06,   1.36470E+06,   1.36470E+06
C:/temp/Job-40.odb,Step-1,Increment      1: Step Time =    1.000,"P-40-1",          1071,       113.919,       58.2514,            0.,NA,NA,"",   1.36433E+06,   1.42826E+06,   1.42826E+06
C:/temp/Job-40.odb,Step-1,Increment      1: Step Time =    1.000,"P-40-1",          1072,       85.9554,       141.656,            0.,NA,NA,"",   1.38184E+06,   1.43950E+06,   1.43950E+06
C:/temp/Job-40.odb,Step-1,Increment      1: Step Time =    1.000,"P-40-1",          1073,       25.7499,       100.632,            0.,NA,NA,"",   597.052E+03,   675.029E+03,   675.029E+03
C:/temp/Job-40.odb,Step-1,Increment      1: Step Time =    1.000,"P-40-1",          1074,       98.1756,       29.4034,            0.,NA,NA,"",   1.05296E+06,   1.09478E+06,   1.09478E+06
C:/temp/Job-40.odb,Step-1,Increment      1: Step Time =    1.000,"P-40-1",          1075,       24.3704,       91.0305,            0.,NA,NA,"",   624.490E+03,   702.380E+03,   702.380E+03
C:/temp/Job-40.odb,Step-1,Increment      1: Step Time =    1.000,"P-40-1",          1076,       109.594,       23.1741,            0.,NA,NA,"",   1.02077E+06,   1.04531E+06,   1.04531E+06
C:/temp/Job-40.odb,Step-1,Increment      1: Step Time =    1.000,"P-40-1",          1077,       174.309,       108.833,            0.,NA,NA,"",   857.194E+03,   913.090E+03,   913.090E+03
C:/temp/Job-40.odb,Step-1,Increment      1: Step Time =    1.000,"P-40-1",          1078,       88.7373,       174.921,            0.,NA,NA,"",   1.06385E+06,   1.08624E+06,   1.08624E+06
C:/temp/Job-40.odb,Step-1,Increment      1: Step Time =    1.000,"P-40-1",          1079,       170.414,       97.3922,            0.,NA,NA,"",   807.081E+03,   860.538E+03,   860.538E+03
C:/temp/Job-40.odb,Step-1,Increment      1: Step Time =    1.000,"P-40-1",          1080,       101.044,       169.148,            0.,NA,NA,"",   1.05545E+06,   1.10174E+06,   1.10174E+06
C:/temp/Job-40.odb,Step-1,Increment      1: Step Time =    1.000,"P-40-1",          1081,       56.5712,       123.512,            0.,NA,NA,"",   997.053E+03,   929.496E+03,   929.496E+03
C:/temp/Job-40.odb,Step-1,Increment      1: Step Time =    1.000,"P-40-1",          1082,       143.258,       77.2099,            0.,NA,NA,"",   1.16236E+06,   1.02866E+06,   1.02866E+06
C:/temp/Job-40.odb,Step-1,Increment      1: Step Time =    1.000,"P-40-1",          1083,       47.4837,       112.381,            0.,NA,NA,"",   639.813E+03,   664.754E+03,   664.754E+03
C:/temp/Job-40.odb,Step-1,Increment      1: Step Time =    1.000,"P-40-1",          1084,       58.4591,       71.9951,            0.,NA,NA,"",   1.13136E+06,   1.04729E+06,   1.04729E+06
C:/temp/Job-40.odb,Step-1,Increment      1: Step Time =    1.000,"P-40-1",          1085,       107.833,       133.766,            0.,NA,NA,"",   1.61626E+06,   1.74369E+06,   1.74369E+06
C:/temp/Job-40.odb,Step-1,Increment      1: Step Time =    1.000,"P-40-1",          1086,       90.7784,       64.7592,            0.,NA,NA,"",   1.49960E+06,   1.61404E+06,   1.61404E+06
C:/temp/Job-40.odb,Step-1,Increment      1: Step Time =    1.000,"P-40-1",          1087,       152.265,       13.9501,            0.,NA,NA,"",   1.02852E+06,   1.02253E+06,   1.02253E+06
C:/temp/Job-40.odb,Step-1,Increment      1: Step Time =    1.000,"P-40-1",          1088,       15.4472,       50.0960,            0.,NA,NA,"",   925.473E+03,   1.00167E+06,   1.00167E+06
C:/temp/Job-40.odb,Step-1,Increment      1: Step Time =    1.000,"P-40-1",          1089,       186.204,       152.135,            0.,NA,NA,"",   999.829E+03,   1.02098E+06,   1.02098E+06
C:/temp/Job-40.odb,Step-1,Increment      1: Step Time =    1.000,"P-40-1",          1090,       47.3590,       187.107,            0.,NA,NA,"",   1.15222E+06,   1.14812E+06,   1.14812E+06
C:/temp/Job-40.odb,Step-1,Increment      1: Step Time =    1.000,"P-40-1",          1091,       50.2339,       78.0999,            0.,NA,NA,"",   874.819E+03,   853.139E+03,   853.139E+03
C:/temp/Job-40.odb,Step-1,Increment      1: Step Time =    1.000,"P-40-1",          1092,       72.4352,       56.7347,            0.,NA,NA,"",   1.37108E+06,   1.33042E+06,   1.33042E+06
C:/temp/Job-40.odb,Step-1,Increment      1: Step Time =    1.000,"P-40-1",          1093,       138.591,       86.1195,            0.,NA,NA,"",   913.240E+03,   762.326E+03,   762.326E+03
C:/temp/Job-40.odb,Step-1,Increment      1: Step Time =    1.000,"P-40-1",          1094,       157.371,       94.8592,            0.,NA,NA,"",   706.651E+03,   732.055E+03,   732.055E+03
C:/temp/Job-40.odb,Step-1,Increment      1: Step Time =    1.000,"P-40-1",          1095,       153.472,       106.590,            0.,NA,NA,"",   697.730E+03,   705.650E+03,   705.650E+03
C:/temp/Job-40.odb,Step-1,Increment      1: Step Time =    1.000,"P-40-1",          1096,       124.893,       25.3915,            0.,NA,NA,"",   1.07491E+06,   1.07808E+06,   1.07808E+06
C:/temp/Job-40.odb,Step-1,Increment      1: Step Time =    1.000,"P-40-1",          1097,       74.5135,       175.368,            0.,NA,NA,"",   1.12146E+06,   1.12244E+06,   1.12244E+06
C:/temp/Job-40.odb,Step-1,Increment      1: Step Time =    1.000,"P-40-1",          1098,       23.9544,       73.2668,            0.,NA,NA,"",   771.317E+03,   839.158E+03,   839.158E+03
C:/temp/Job-40.odb,Step-1,Increment      1: Step Time =    1.000,"P-40-1",          1099,       175.414,       124.353,            0.,NA,NA,"",   959.622E+03,   992.331E+03,   992.331E+03
C:/temp/Job-40.odb,Step-1,Increment      1: Step Time =    1.000,"P-40-1",          1100,       33.2530,       27.4945,            0.,NA,NA,"",   1.17057E+06,   1.18125E+06,   1.18125E+06
C:/temp/Job-40.odb,Step-1,Increment      1: Step Time =    1.000,"P-40-1",          1101,       25.9203,       30.7929,            0.,NA,NA,"",   1.13148E+06,   1.16387E+06,   1.16387E+06
C:/temp/Job-40.odb,Step-1,Increment      1: Step Time =    1.000,"P-40-1",          1102,       24.0378,       167.259,            0.,NA,NA,"",   1.10863E+06,   1.14850E+06,   1.14850E+06
C:/temp/Job-40.odb,Step-1,Increment      1: Step Time =    1.000,"P-40-1",          1103,       168.773,       26.1031,            0.,NA,NA,"",   1.04893E+06,   1.04197E+06,   1.04197E+06
C:/temp/Job-40.odb,Step-1,Increment      1: Step Time =    1.000,"P-40-1",          1104,       176.618,       32.0964,            0.,NA,NA,"",   1.03598E+06,   1.03527E+06,   1.03527E+06
C:/temp/Job-40.odb,Step-1,Increment      1: Step Time =    1.000,"P-40-1",          1105,       31.1947,       173.959,            0.,NA,NA,"",   1.17235E+06,   1.18698E+06,   1.18698E+06
C:/temp/Job-40.odb,Step-1,Increment      1: Step Time =    1.000,"P-40-1",          1106,       174.392,       168.464,            0.,NA,NA,"",   1.04213E+06,   1.03914E+06,   1.03914E+06
C:/temp/Job-40.odb,Step-1,Increment      1: Step Time =    1.000,"P-40-1",          1107,       168.200,       176.201,            0.,NA,NA,"",   1.04501E+06,   1.03852E+06,   1.03852E+06
C:/temp/Job-40.odb,Step-1,Increment      1: Step Time =    1.000,"P-40-1",          1108,       26.0749,       146.374,            0.,NA,NA,"",   967.415E+03,   1.01570E+06,   1.01570E+06
C:/temp/Job-40.odb,Step-1,Increment      1: Step Time =    1.000,"P-40-1",          1109,       24.9848,       55.0506,            0.,NA,NA,"",   946.496E+03,   998.956E+03,   998.956E+03
C:/temp/Job-40.odb,Step-1,Increment      1: Step Time =    1.000,"P-40-1",          1110,       53.6137,       25.7529,            0.,NA,NA,"",   1.18023E+06,   1.16692E+06,   1.16692E+06
C:/temp/Job-40.odb,Step-1,Increment      1: Step Time =    1.000,"P-40-1",          1111,       144.706,       172.995,            0.,NA,NA,"",   1.10447E+06,   1.08615E+06,   1.08615E+06
C:/temp/Job-40.odb,Step-1,Increment      1: Step Time =    1.000,"P-40-1",          1112,       173.031,       54.9192,            0.,NA,NA,"",   1.06060E+06,   1.05857E+06,   1.05857E+06
C:/temp/Job-40.odb,Step-1,Increment      1: Step Time =    1.000,"P-40-1",          1113,       15.0629,       176.863,            0.,NA,NA,"",   1.14542E+06,   1.20697E+06,   1.20697E+06
C:/temp/Job-40.odb,Step-1,Increment      1: Step Time =    1.000,"P-40-1",          1114,       179.706,       15.9360,            0.,NA,NA,"",   1.01043E+06,   1.01088E+06,   1.01088E+06
C:/temp/Job-40.odb,Step-1,Increment      1: Step Time =    1.000,"P-40-1",          1115,       16.3794,       24.4826,            0.,NA,NA,"",   1.13954E+06,   1.19730E+06,   1.19730E+06
C:/temp/Job-40.odb,Step-1,Increment      1: Step Time =    1.000,"P-40-1",          1116,       23.4729,       12.8688,            0.,NA,NA,"",   1.23375E+06,   1.24759E+06,   1.24759E+06
C:/temp/Job-40.odb,Step-1,Increment      1: Step Time =    1.000,"P-40-1",          1117,       175.247,       186.233,            0.,NA,NA,"",   1.01318E+06,   1.01250E+06,   1.01250E+06
C:/temp/Job-40.odb,Step-1,Increment      1: Step Time =    1.000,"P-40-1",          1118,       184.094,       179.638,            0.,NA,NA,"",   1.00817E+06,   1.01025E+06,   1.01025E+06
C:/temp/Job-40.odb,Step-1,Increment      1: Step Time =    1.000,"P-40-1",          1119,       20.1464,       183.348,            0.,NA,NA,"",   1.22705E+06,   1.25454E+06,   1.25454E+06
C:/temp/Job-40.odb,Step-1,Increment      1: Step Time =    1.000,"P-40-1",          1120,       186.313,       24.7726,            0.,NA,NA,"",   1.00660E+06,   1.01063E+06,   1.01063E+06
C:/temp/Job-40.odb,Step-1,Increment      1: Step Time =    1.000,"P-40-1",          1121,       64.4815,       130.316,            0.,NA,NA,"",   1.26458E+06,   1.16444E+06,   1.16444E+06
C:/temp/Job-40.odb,Step-1,Increment      1: Step Time =    1.000,"P-40-1",          1122,       133.816,       68.8589,            0.,NA,NA,"",   1.42022E+06,   1.27922E+06,   1.27922E+06
C:/temp/Job-40.odb,Step-1,Increment      1: Step Time =    1.000,"P-40-1",          1123,       113.302,       143.829,            0.,NA,NA,"",   1.32130E+06,   1.39731E+06,   1.39731E+06
C:/temp/Job-40.odb,Step-1,Increment      1: Step Time =    1.000,"P-40-1",          1124,       122.825,       148.182,            0.,NA,NA,"",   1.31657E+06,   1.31402E+06,   1.31402E+06
C:/temp/Job-40.odb,Step-1,Increment      1: Step Time =    1.000,"P-40-1",          1125,       118.416,       56.2616,            0.,NA,NA,"",   1.35449E+06,   1.37602E+06,   1.37602E+06
C:/temp/Job-40.odb,Step-1,Increment      1: Step Time =    1.000,"P-40-1",          1126,       43.1010,       114.494,            0.,NA,NA,"",   675.038E+03,   711.606E+03,   711.606E+03
C:/temp/Job-40.odb,Step-1,Increment      1: Step Time =    1.000,"P-40-1",          1127,       86.1530,       65.2589,            0.,NA,NA,"",   1.50995E+06,   1.57252E+06,   1.57252E+06
C:/temp/Job-40.odb,Step-1,Increment      1: Step Time =    1.000,"P-40-1",          1128,       144.298,       118.936,            0.,NA,NA,"",   1.05443E+06,   938.452E+03,   938.452E+03
C:/temp/Job-40.odb,Step-1,Increment      1: Step Time =    1.000,"P-40-1",          1129,       108.516,       28.8909,            0.,NA,NA,"",   1.05175E+06,   1.08794E+06,   1.08794E+06
C:/temp/Job-40.odb,Step-1,Increment      1: Step Time =    1.000,"P-40-1",          1130,       29.4127,       89.5003,            0.,NA,NA,"",   629.955E+03,   701.762E+03,   701.762E+03
C:/temp/Job-40.odb,Step-1,Increment      1: Step Time =    1.000,"P-40-1",          1131,       169.443,       109.162,            0.,NA,NA,"",   839.746E+03,   883.101E+03,   883.101E+03
C:/temp/Job-40.odb,Step-1,Increment      1: Step Time =    1.000,"P-40-1",          1132,       92.9795,       170.210,            0.,NA,NA,"",   1.07174E+06,   1.10895E+06,   1.10895E+06
C:/temp/Job-40.odb,Step-1,Increment      1: Step Time =    1.000,"P-40-1",          1133,       142.462,       71.2576,            0.,NA,NA,"",   1.27269E+06,   1.14263E+06,   1.14263E+06
C:/temp/Job-40.odb,Step-1,Increment      1: Step Time =    1.000,"P-40-1",          1134,       55.3342,       134.300,            0.,NA,NA,"",   1.15576E+06,   1.09776E+06,   1.09776E+06
C:/temp/Job-40.odb,Step-1,Increment      1: Step Time =    1.000,"P-40-1",          1135,       166.110,       99.2921,            0.,NA,NA,"",   772.282E+03,   818.736E+03,   818.736E+03
C:/temp/Job-40.odb,Step-1,Increment      1: Step Time =    1.000,"P-40-1",          1136,       99.0233,       165.704,            0.,NA,NA,"",   1.07399E+06,   1.12805E+06,   1.12805E+06
C:/temp/Job-40.odb,Step-1,Increment      1: Step Time =    1.000,"P-40-1",          1137,       31.3748,       100.326,            0.,NA,NA,"",   575.588E+03,    648.99E+03,    648.99E+03
C:/temp/Job-40.odb,Step-1,Increment      1: Step Time =    1.000,"P-40-1",          1138,       100.486,       33.5948,            0.,NA,NA,"",   1.06894E+06,   1.12212E+06,   1.12212E+06
C:/temp/Job-40.odb,Step-1,Increment      1: Step Time =    1.000,"P-40-1",          1139,       45.3095,       184.824,            0.,NA,NA,"",   1.16340E+06,   1.15935E+06,   1.15935E+06
C:/temp/Job-40.odb,Step-1,Increment      1: Step Time =    1.000,"P-40-1",          1140,       184.788,       155.301,            0.,NA,NA,"",   1.00738E+06,   1.02328E+06,   1.02328E+06
C:/temp/Job-40.odb,Step-1,Increment      1: Step Time =    1.000,"P-40-1",          1141,       18.8684,       48.2570,            0.,NA,NA,"",   960.603E+03,   1.02760E+06,   1.02760E+06
C:/temp/Job-40.odb,Step-1,Increment      1: Step Time =    1.000,"P-40-1",          1142,       155.475,       15.3871,            0.,NA,NA,"",   1.03292E+06,   1.02649E+06,   1.02649E+06
C:/temp/Job-40.odb,Step-1,Increment      1: Step Time =    1.000,"P-40-1",          1143,       77.5474,       151.149,            0.,NA,NA,"",   1.29861E+06,   1.30072E+06,   1.30072E+06
C:/temp/Job-40.odb,Step-1,Increment      1: Step Time =    1.000,"P-40-1",          1144,       119.301,       49.2104,            0.,NA,NA,"",   1.26810E+06,   1.29160E+06,   1.29160E+06
C:/temp/Job-40.odb,Step-1,Increment      1: Step Time =    1.000,"P-40-1",          1145,       120.350,       151.852,            0.,NA,NA,"",   1.25749E+06,   1.27528E+06,   1.27528E+06
C:/temp/Job-40.odb,Step-1,Increment      1: Step Time =    1.000,"P-40-1",          1146,       22.7458,       153.825,            0.,NA,NA,"",   1.00367E+06,   1.05791E+06,   1.05791E+06
C:/temp/Job-40.odb,Step-1,Increment      1: Step Time =    1.000,"P-40-1",          1147,       149.721,       23.7580,            0.,NA,NA,"",   1.07720E+06,   1.06279E+06,   1.06279E+06
C:/temp/Job-40.odb,Step-1,Increment      1: Step Time =    1.000,"P-40-1",          1148,       47.6017,       21.6660,            0.,NA,NA,"",   1.17462E+06,   1.16629E+06,   1.16629E+06
C:/temp/Job-40.odb,Step-1,Increment      1: Step Time =    1.000,"P-40-1",          1149,       177.488,       48.6254,            0.,NA,NA,"",   1.04003E+06,   1.04540E+06,   1.04540E+06
C:/temp/Job-40.odb,Step-1,Increment      1: Step Time =    1.000,"P-40-1",          1150,       50.8169,       174.713,            0.,NA,NA,"",   1.18199E+06,   1.16961E+06,   1.16961E+06
C:/temp/Job-40.odb,Step-1,Increment      1: Step Time =    1.000,"P-40-1",          1151,       176.539,       149.275,            0.,NA,NA,"",   1.04199E+06,   1.04741E+06,   1.04741E+06
C:/temp/Job-40.odb,Step-1,Increment      1: Step Time =    1.000,"P-40-1",          1152,       151.458,       176.961,            0.,NA,NA,"",   1.07343E+06,   1.05970E+06,   1.05970E+06
C:/temp/Job-40.odb,Step-1,Increment      1: Step Time =    1.000,"P-40-1",          1153,       57.1332,       138.116,            0.,NA,NA,"",   1.21557E+06,   1.15490E+06,   1.15490E+06
C:/temp/Job-40.odb,Step-1,Increment      1: Step Time =    1.000,"P-40-1",          1154,       139.948,       65.5293,            0.,NA,NA,"",   1.35045E+06,   1.22877E+06,   1.22877E+06
C:/temp/Job-40.odb,Step-1,Increment      1: Step Time =    1.000,"P-40-1",          1155,       19.5267,       14.5713,            0.,NA,NA,"",   1.24381E+06,   1.26683E+06,   1.26683E+06
C:/temp/Job-40.odb,Step-1,Increment      1: Step Time =    1.000,"P-40-1",          1156,       14.4875,       181.481,            0.,NA,NA,"",   1.19209E+06,   1.24822E+06,   1.24822E+06
C:/temp/Job-40.odb,Step-1,Increment      1: Step Time =    1.000,"P-40-1",          1157,       185.458,       20.3948,            0.,NA,NA,"",   1.00645E+06,   1.00885E+06,   1.00885E+06
C:/temp/Job-40.odb,Step-1,Increment      1: Step Time =    1.000,"P-40-1",          1158,       179.634,       185.392,            0.,NA,NA,"",   1.00935E+06,   1.00975E+06,   1.00975E+06
C:/temp/Job-40.odb,Step-1,Increment      1: Step Time =    1.000,"P-40-1",          1159,       181.882,       147.890,            0.,NA,NA,"",   1.01275E+06,   1.03134E+06,   1.03134E+06
C:/temp/Job-40.odb,Step-1,Increment      1: Step Time =    1.000,"P-40-1",          1160,       148.146,       18.3294,            0.,NA,NA,"",   1.04868E+06,   1.03925E+06,   1.03925E+06
C:/temp/Job-40.odb,Step-1,Increment      1: Step Time =    1.000,"P-40-1",          1161,       17.8224,       52.2835,            0.,NA,NA,"",   923.685E+03,   994.223E+03,   994.223E+03
C:/temp/Job-40.odb,Step-1,Increment      1: Step Time =    1.000,"P-40-1",          1162,       49.3547,       134.313,            0.,NA,NA,"",   1.06818E+06,   1.03777E+06,   1.03777E+06
C:/temp/Job-40.odb,Step-1,Increment      1: Step Time =    1.000,"P-40-1",          1163,       149.247,       69.7360,            0.,NA,NA,"",   1.19685E+06,   1.10369E+06,   1.10369E+06
C:/temp/Job-40.odb,Step-1,Increment      1: Step Time =    1.000,"P-40-1",          1164,       54.7504,       75.4009,            0.,NA,NA,"",   994.366E+03,   936.965E+03,   936.965E+03
C:/temp/Job-40.odb,Step-1,Increment      1: Step Time =    1.000,"P-40-1",          1165,       85.8649,       60.0687,            0.,NA,NA,"",   1.40004E+06,   1.46009E+06,   1.46009E+06
C:/temp/Job-40.odb,Step-1,Increment      1: Step Time =    1.000,"P-40-1",          1166,       19.5929,       78.9365,            0.,NA,NA,"",   707.493E+03,   785.370E+03,   785.370E+03
C:/temp/Job-40.odb,Step-1,Increment      1: Step Time =    1.000,"P-40-1",          1167,       48.3233,       81.7683,            0.,NA,NA,"",   776.582E+03,   776.021E+03,   776.021E+03
C:/temp/Job-40.odb,Step-1,Increment      1: Step Time =    1.000,"P-40-1",          1168,       76.9970,       57.6101,            0.,NA,NA,"",   1.39468E+06,   1.37860E+06,   1.37860E+06
C:/temp/Job-40.odb,Step-1,Increment      1: Step Time =    1.000,"P-40-1",          1169,       67.4579,       60.6271,            0.,NA,NA,"",   1.34632E+06,   1.27781E+06,   1.27781E+06
C:/temp/Job-40.odb,Step-1,Increment      1: Step Time =    1.000,"P-40-1",          1170,       150.042,       101.571,            0.,NA,NA,"",   566.603E+03,   582.196E+03,   582.196E+03
C:/temp/Job-40.odb,Step-1,Increment      1: Step Time =    1.000,"P-40-1",          1171,       155.468,       89.8002,            0.,NA,NA,"",   782.744E+03,   782.237E+03,   782.237E+03
C:/temp/Job-40.odb,Step-1,Increment      1: Step Time =    1.000,"P-40-1",          1172,       157.458,       107.650,            0.,NA,NA,"",   749.036E+03,   765.203E+03,   765.203E+03
C:/temp/Job-40.odb,Step-1,Increment      1: Step Time =    1.000,"P-40-1",          1173,       16.4428,       18.9306,            0.,NA,NA,"",   1.19954E+06,   1.24608E+06,   1.24608E+06
C:/temp/Job-40.odb,Step-1,Increment      1: Step Time =    1.000,"P-40-1",          1174,       14.8915,       184.912,            0.,NA,NA,"",   1.24124E+06,   1.28458E+06,   1.28458E+06
C:/temp/Job-40.odb,Step-1,Increment      1: Step Time =    1.000,"P-40-1",          1175,       134.809,       30.7548,            0.,NA,NA,"",   1.13096E+06,   1.11643E+06,   1.11643E+06
C:/temp/Job-40.odb,Step-1,Increment      1: Step Time =    1.000,"P-40-1",          1176,       29.9837,       63.6440,            0.,NA,NA,"",   903.851E+03,   947.671E+03,   947.671E+03
C:/temp/Job-40.odb,Step-1,Increment      1: Step Time =    1.000,"P-40-1",          1177,       169.750,       133.959,            0.,NA,NA,"",   1.04760E+06,   1.04375E+06,   1.04375E+06
C:/temp/Job-40.odb,Step-1,Increment      1: Step Time =    1.000,"P-40-1",          1178,       35.0972,       30.9830,            0.,NA,NA,"",   1.16244E+06,   1.17091E+06,   1.17091E+06
C:/temp/Job-40.odb,Step-1,Increment      1: Step Time =    1.000,"P-40-1",          1179,       27.2837,       34.0912,            0.,NA,NA,"",   1.11713E+06,   1.14807E+06,   1.14807E+06
C:/temp/Job-40.odb,Step-1,Increment      1: Step Time =    1.000,"P-40-1",          1180,       28.8847,       20.6755,            0.,NA,NA,"",   1.19215E+06,   1.20619E+06,   1.20619E+06
C:/temp/Job-40.odb,Step-1,Increment      1: Step Time =    1.000,"P-40-1",          1181,       22.1223,       24.8123,            0.,NA,NA,"",   1.15906E+06,   1.19693E+06,   1.19693E+06
C:/temp/Job-40.odb,Step-1,Increment      1: Step Time =    1.000,"P-40-1",          1182,       163.796,       30.6639,            0.,NA,NA,"",   1.07735E+06,   1.06356E+06,   1.06356E+06
C:/temp/Job-40.odb,Step-1,Increment      1: Step Time =    1.000,"P-40-1",          1183,       27.4898,       164.493,            0.,NA,NA,"",   1.10763E+06,   1.13878E+06,   1.13878E+06
C:/temp/Job-40.odb,Step-1,Increment      1: Step Time =    1.000,"P-40-1",          1184,       23.4161,       173.058,            0.,NA,NA,"",   1.14723E+06,   1.18321E+06,   1.18321E+06
C:/temp/Job-40.odb,Step-1,Increment      1: Step Time =    1.000,"P-40-1",          1185,       173.249,       26.5394,            0.,NA,NA,"",   1.03809E+06,   1.03448E+06,   1.03448E+06
C:/temp/Job-40.odb,Step-1,Increment      1: Step Time =    1.000,"P-40-1",          1186,       177.695,       27.4829,            0.,NA,NA,"",   1.02675E+06,   1.02686E+06,   1.02686E+06
C:/temp/Job-40.odb,Step-1,Increment      1: Step Time =    1.000,"P-40-1",          1187,       26.9535,       174.149,            0.,NA,NA,"",   1.16379E+06,   1.18842E+06,   1.18842E+06
C:/temp/Job-40.odb,Step-1,Increment      1: Step Time =    1.000,"P-40-1",          1188,       36.1165,       169.745,            0.,NA,NA,"",   1.16649E+06,   1.17259E+06,   1.17259E+06
C:/temp/Job-40.odb,Step-1,Increment      1: Step Time =    1.000,"P-40-1",          1189,       175.598,       35.6386,            0.,NA,NA,"",   1.04250E+06,   1.04110E+06,   1.04110E+06
C:/temp/Job-40.odb,Step-1,Increment      1: Step Time =    1.000,"P-40-1",          1190,       172.723,       177.451,            0.,NA,NA,"",   1.03129E+06,   1.02824E+06,   1.02824E+06
C:/temp/Job-40.odb,Step-1,Increment      1: Step Time =    1.000,"P-40-1",          1191,       173.788,       173.009,            0.,NA,NA,"",   1.03691E+06,   1.03381E+06,   1.03381E+06
C:/temp/Job-40.odb,Step-1,Increment      1: Step Time =    1.000,"P-40-1",          1192,       164.653,       175.073,            0.,NA,NA,"",   1.05592E+06,   1.04666E+06,   1.04666E+06
C:/temp/Job-40.odb,Step-1,Increment      1: Step Time =    1.000,"P-40-1",          1193,       170.322,       163.265,            0.,NA,NA,"",   1.06625E+06,   1.05753E+06,   1.05753E+06
C:/temp/Job-40.odb,Step-1,Increment      1: Step Time =    1.000,"P-40-1",          1194,       110.170,       144.593,            0.,NA,NA,"",   1.28428E+06,   1.37995E+06,   1.37995E+06
C:/temp/Job-40.odb,Step-1,Increment      1: Step Time =    1.000,"P-40-1",          1195,       112.780,       137.189,            0.,NA,NA,"",   1.45637E+06,   1.54188E+06,   1.54188E+06
C:/temp/Job-40.odb,Step-1,Increment      1: Step Time =    1.000,"P-40-1",          1196,       125.781,       145.204,            0.,NA,NA,"",   1.36524E+06,   1.33429E+06,   1.33429E+06
C:/temp/Job-40.odb,Step-1,Increment      1: Step Time =    1.000,"P-40-1",          1197,       121.504,       58.7237,            0.,NA,NA,"",   1.40149E+06,   1.39058E+06,   1.39058E+06
C:/temp/Job-40.odb,Step-1,Increment      1: Step Time =    1.000,"P-40-1",          1198,       75.6873,       142.320,            0.,NA,NA,"",   1.38301E+06,   1.35658E+06,   1.35658E+06
C:/temp/Job-40.odb,Step-1,Increment      1: Step Time =    1.000,"P-40-1",          1199,       50.5451,       120.764,            0.,NA,NA,"",    853.02E+03,   833.782E+03,   833.782E+03
C:/temp/Job-40.odb,Step-1,Increment      1: Step Time =    1.000,"P-40-1",          1200,       41.3687,       110.589,            0.,NA,NA,"",   610.487E+03,   661.489E+03,   661.489E+03
C:/temp/Job-40.odb,Step-1,Increment      1: Step Time =    1.000,"P-40-1",          1201,       147.995,       121.346,            0.,NA,NA,"",   1.06508E+06,   972.478E+03,   972.478E+03
C:/temp/Job-40.odb,Step-1,Increment      1: Step Time =    1.000,"P-40-1",          1202,       139.066,       121.347,            0.,NA,NA,"",   1.18822E+06,   1.02774E+06,   1.02774E+06
C:/temp/Job-40.odb,Step-1,Increment      1: Step Time =    1.000,"P-40-1",          1203,       129.234,       68.0021,            0.,NA,NA,"",   1.47940E+06,   1.35738E+06,   1.35738E+06
C:/temp/Job-40.odb,Step-1,Increment      1: Step Time =    1.000,"P-40-1",          1204,       71.3372,       131.565,            0.,NA,NA,"",   1.38458E+06,   1.28903E+06,   1.28903E+06
C:/temp/Job-40.odb,Step-1,Increment      1: Step Time =    1.000,"P-40-1",          1205,       112.776,       55.2363,            0.,NA,NA,"",   1.30768E+06,   1.37772E+06,   1.37772E+06
C:/temp/Job-40.odb,Step-1,Increment      1: Step Time =    1.000,"P-40-1",          1206,       86.6892,       146.196,            0.,NA,NA,"",   1.30593E+06,   1.36588E+06,   1.36588E+06
C:/temp/Job-40.odb,Step-1,Increment      1: Step Time =    1.000,"P-40-1",          1207,       165.589,       88.3692,            0.,NA,NA,"",   842.183E+03,   870.396E+03,   870.396E+03
C:/temp/Job-40.odb,Step-1,Increment      1: Step Time =    1.000,"P-40-1",          1208,       108.305,       167.617,            0.,NA,NA,"",   1.07042E+06,   1.11353E+06,   1.11353E+06
C:/temp/Job-40.odb,Step-1,Increment      1: Step Time =    1.000,"P-40-1",          1209,       33.3793,       111.467,            0.,NA,NA,"",   634.126E+03,   699.401E+03,   699.401E+03
C:/temp/Job-40.odb,Step-1,Increment      1: Step Time =    1.000,"P-40-1",          1210,       88.1337,       36.9734,            0.,NA,NA,"",   1.13269E+06,   1.17510E+06,   1.17510E+06
C:/temp/Job-40.odb,Step-1,Increment      1: Step Time =    1.000,"P-40-1",          1211,       163.995,       105.151,            0.,NA,NA,"",   773.819E+03,   811.917E+03,   811.917E+03
C:/temp/Job-40.odb,Step-1,Increment      1: Step Time =    1.000,"P-40-1",          1212,       95.6906,       161.545,            0.,NA,NA,"",   1.10722E+06,   1.16901E+06,   1.16901E+06
C:/temp/Job-40.odb,Step-1,Increment      1: Step Time =    1.000,"P-40-1",          1213,       36.1059,       94.3390,            0.,NA,NA,"",   577.630E+03,   644.037E+03,   644.037E+03
C:/temp/Job-40.odb,Step-1,Increment      1: Step Time =    1.000,"P-40-1",          1214,       106.830,       35.7639,            0.,NA,NA,"",   1.08337E+06,   1.13724E+06,   1.13724E+06
C:/temp/Job-40.odb,Step-1,Increment      1: Step Time =    1.000,"P-40-1",          1215,       120.257,       166.012,            0.,NA,NA,"",   1.12278E+06,   1.14149E+06,   1.14149E+06
C:/temp/Job-40.odb,Step-1,Increment      1: Step Time =    1.000,"P-40-1",          1216,       165.275,       78.7669,            0.,NA,NA,"",   960.760E+03,   961.207E+03,   961.207E+03
C:/temp/Job-40.odb,Step-1,Increment      1: Step Time =    1.000,"P-40-1",          1217,       34.3644,       119.527,            0.,NA,NA,"",   727.359E+03,   780.726E+03,   780.726E+03
C:/temp/Job-40.odb,Step-1,Increment      1: Step Time =    1.000,"P-40-1",          1218,       76.4248,       35.4117,            0.,NA,NA,"",   1.18716E+06,   1.19221E+06,   1.19221E+06
C:/temp/Job-40.odb,Step-1,Increment      1: Step Time =    1.000,"P-40-1",          1219,       51.8156,       88.1177,            0.,NA,NA,"",   630.987E+03,   634.277E+03,   634.277E+03
C:/temp/Job-40.odb,Step-1,Increment      1: Step Time =    1.000,"P-40-1",          1220,       36.2712,       104.237,            0.,NA,NA,"",   560.821E+03,   628.202E+03,   628.202E+03
C:/temp/Job-40.odb,Step-1,Increment      1: Step Time =    1.000,"P-40-1",          1221,       98.3317,       38.2137,            0.,NA,NA,"",   1.09466E+06,   1.15958E+06,   1.15958E+06
C:/temp/Job-40.odb,Step-1,Increment      1: Step Time =    1.000,"P-40-1",          1222,       163.852,       94.8180,            0.,NA,NA,"",   764.789E+03,   803.237E+03,   803.237E+03
C:/temp/Job-40.odb,Step-1,Increment      1: Step Time =    1.000,"P-40-1",          1223,       102.952,       163.545,            0.,NA,NA,"",   1.08356E+06,   1.14326E+06,   1.14326E+06
C:/temp/Job-40.odb,Step-1,Increment      1: Step Time =    1.000,"P-40-1",          1224,       130.380,       167.340,            0.,NA,NA,"",   1.14495E+06,   1.13604E+06,   1.13604E+06
C:/temp/Job-40.odb,Step-1,Increment      1: Step Time =    1.000,"P-40-1",          1225,       68.5194,       31.3641,            0.,NA,NA,"",   1.18641E+06,   1.17681E+06,   1.17681E+06
C:/temp/Job-40.odb,Step-1,Increment      1: Step Time =    1.000,"P-40-1",          1226,       166.872,       69.1903,            0.,NA,NA,"",   1.04484E+06,   1.03374E+06,   1.03374E+06
C:/temp/Job-40.odb,Step-1,Increment      1: Step Time =    1.000,"P-40-1",          1227,       35.3070,       128.602,            0.,NA,NA,"",   848.803E+03,   886.146E+03,   886.146E+03
C:/temp/Job-40.odb,Step-1,Increment      1: Step Time =    1.000,"P-40-1",          1228,       182.810,       151.051,            0.,NA,NA,"",   1.01279E+06,   1.02968E+06,   1.02968E+06
C:/temp/Job-40.odb,Step-1,Increment      1: Step Time =    1.000,"P-40-1",          1229,       151.248,       17.3898,            0.,NA,NA,"",   1.04452E+06,   1.03582E+06,   1.03582E+06
C:/temp/Job-40.odb,Step-1,Increment      1: Step Time =    1.000,"P-40-1",          1230,       22.9545,       47.2784,            0.,NA,NA,"",   996.525E+03,   1.05073E+06,   1.05073E+06
C:/temp/Job-40.odb,Step-1,Increment      1: Step Time =    1.000,"P-40-1",          1231,       181.160,       43.2145,            0.,NA,NA,"",   1.02527E+06,   1.03366E+06,   1.03366E+06
C:/temp/Job-40.odb,Step-1,Increment      1: Step Time =    1.000,"P-40-1",          1232,       156.964,       180.934,            0.,NA,NA,"",   1.04830E+06,   1.03938E+06,   1.03938E+06
C:/temp/Job-40.odb,Step-1,Increment      1: Step Time =    1.000,"P-40-1",          1233,       43.7407,       15.1091,            0.,NA,NA,"",   1.16807E+06,   1.16366E+06,   1.16366E+06
C:/temp/Job-40.odb,Step-1,Increment      1: Step Time =    1.000,"P-40-1",          1234,       13.2945,       156.501,            0.,NA,NA,"",   960.305E+03,   1.04090E+06,   1.04090E+06
C:/temp/Job-40.odb,Step-1,Increment      1: Step Time =    1.000,"P-40-1",          1235,       45.4105,       108.076,            0.,NA,NA,"",   557.852E+03,   603.010E+03,   603.010E+03
C:/temp/Job-40.odb,Step-1,Increment      1: Step Time =    1.000,"P-40-1",          1236,       150.222,       76.5861,            0.,NA,NA,"",   1.08711E+06,   1.00396E+06,   1.00396E+06
C:/temp/Job-40.odb,Step-1,Increment      1: Step Time =    1.000,"P-40-1",          1237,       81.9869,       151.123,            0.,NA,NA,"",   1.27621E+06,   1.30275E+06,   1.30275E+06
C:/temp/Job-40.odb,Step-1,Increment      1: Step Time =    1.000,"P-40-1",          1238,       115.945,       46.1617,            0.,NA,NA,"",   1.20995E+06,   1.25216E+06,   1.25216E+06
C:/temp/Job-40.odb,Step-1,Increment      1: Step Time =    1.000,"P-40-1",          1239,       115.127,       155.762,            0.,NA,NA,"",   1.18296E+06,   1.22877E+06,   1.22877E+06
C:/temp/Job-40.odb,Step-1,Increment      1: Step Time =    1.000,"P-40-1",          1240,       17.6189,       153.173,            0.,NA,NA,"",   963.421E+03,   1.03416E+06,   1.03416E+06
C:/temp/Job-40.odb,Step-1,Increment      1: Step Time =    1.000,"P-40-1",          1241,       28.1118,       150.963,            0.,NA,NA,"",   1.02002E+06,   1.05846E+06,   1.05846E+06
C:/temp/Job-40.odb,Step-1,Increment      1: Step Time =    1.000,"P-40-1",          1242,       47.8104,       17.3085,            0.,NA,NA,"",   1.16501E+06,   1.15867E+06,   1.15867E+06
C:/temp/Job-40.odb,Step-1,Increment      1: Step Time =    1.000,"P-40-1",          1243,       48.5539,       26.4975,            0.,NA,NA,"",   1.18561E+06,   1.17416E+06,   1.17416E+06
C:/temp/Job-40.odb,Step-1,Increment      1: Step Time =    1.000,"P-40-1",          1244,       172.649,       50.5484,            0.,NA,NA,"",   1.06639E+06,   1.06152E+06,   1.06152E+06
C:/temp/Job-40.odb,Step-1,Increment      1: Step Time =    1.000,"P-40-1",          1245,       179.445,       46.0188,            0.,NA,NA,"",   1.03227E+06,   1.03965E+06,   1.03965E+06
C:/temp/Job-40.odb,Step-1,Increment      1: Step Time =    1.000,"P-40-1",          1246,       149.056,       172.164,            0.,NA,NA,"",   1.10352E+06,   1.08406E+06,   1.08406E+06
C:/temp/Job-40.odb,Step-1,Increment      1: Step Time =    1.000,"P-40-1",          1247,       154.139,       179.079,            0.,NA,NA,"",   1.06013E+06,   1.04880E+06,   1.04880E+06
C:/temp/Job-40.odb,Step-1,Increment      1: Step Time =    1.000,"P-40-1",          1248,       19.3917,       17.6430,            0.,NA,NA,"",   1.22441E+06,   1.25529E+06,   1.25529E+06
C:/temp/Job-40.odb,Step-1,Increment      1: Step Time =    1.000,"P-40-1",          1249,       47.3761,       129.811,            0.,NA,NA,"",   987.434E+03,   968.895E+03,   968.895E+03
C:/temp/Job-40.odb,Step-1,Increment      1: Step Time =    1.000,"P-40-1",          1250,       154.569,       72.6590,            0.,NA,NA,"",   1.10194E+06,   1.03954E+06,   1.03954E+06
C:/temp/Job-40.odb,Step-1,Increment      1: Step Time =    1.000,"P-40-1",          1251,       91.9377,       54.5027,            0.,NA,NA,"",   1.27071E+06,   1.36505E+06,   1.36505E+06
C:/temp/Job-40.odb,Step-1,Increment      1: Step Time =    1.000,"P-40-1",          1252,       44.5225,       78.4891,            0.,NA,NA,"",   810.812E+03,   821.992E+03,   821.992E+03
C:/temp/Job-40.odb,Step-1,Increment      1: Step Time =    1.000,"P-40-1",          1253,       154.446,       102.719,            0.,NA,NA,"",   648.495E+03,   671.392E+03,   671.392E+03
C:/temp/Job-40.odb,Step-1,Increment      1: Step Time =    1.000,"P-40-1",          1254,       155.713,       98.9137,            0.,NA,NA,"",   652.744E+03,   681.325E+03,   681.325E+03
C:/temp/Job-40.odb,Step-1,Increment      1: Step Time =    1.000,"P-40-1",          1255,       153.438,       86.6200,            0.,NA,NA,"",   841.081E+03,   817.119E+03,   817.119E+03
C:/temp/Job-40.odb,Step-1,Increment      1: Step Time =    1.000,"P-40-1",          1256,       10.7249,       15.2514,            0.,NA,NA,"",   1.22709E+06,   1.29269E+06,   1.29269E+06
C:/temp/Job-40.odb,Step-1,Increment      1: Step Time =    1.000,"P-40-1",          1257,       184.858,       10.3573,            0.,NA,NA,"",   1.00296E+06,   1.00361E+06,   1.00361E+06
C:/temp/Job-40.odb,Step-1,Increment      1: Step Time =    1.000,"P-40-1",          1258,       15.1766,       189.661,            0.,NA,NA,"",   1.29625E+06,   1.31994E+06,   1.31994E+06
C:/temp/Job-40.odb,Step-1,Increment      1: Step Time =    1.000,"P-40-1",          1259,       189.639,       184.832,            0.,NA,NA,"",   1.00206E+06,   1.00344E+06,   1.00344E+06
C:/temp/Job-40.odb,Step-1,Increment      1: Step Time =    1.000,"P-40-1",          1260,       24.3157,       27.6563,            0.,NA,NA,"",   1.14494E+06,   1.17918E+06,   1.17918E+06
C:/temp/Job-40.odb,Step-1,Increment      1: Step Time =    1.000,"P-40-1",          1261,       39.3136,       29.0750,            0.,NA,NA,"",   1.17738E+06,   1.17688E+06,   1.17688E+06
C:/temp/Job-40.odb,Step-1,Increment      1: Step Time =    1.000,"P-40-1",          1262,       26.3560,       170.483,            0.,NA,NA,"",   1.13956E+06,   1.17004E+06,   1.17004E+06
C:/temp/Job-40.odb,Step-1,Increment      1: Step Time =    1.000,"P-40-1",          1263,       172.340,       31.5543,            0.,NA,NA,"",   1.05062E+06,   1.04504E+06,   1.04504E+06
C:/temp/Job-40.odb,Step-1,Increment      1: Step Time =    1.000,"P-40-1",          1264,       30.3120,       161.193,            0.,NA,NA,"",   1.10441E+06,   1.12940E+06,   1.12940E+06
C:/temp/Job-40.odb,Step-1,Increment      1: Step Time =    1.000,"P-40-1",          1265,       168.942,       171.870,            0.,NA,NA,"",   1.05342E+06,   1.04586E+06,   1.04586E+06
C:/temp/Job-40.odb,Step-1,Increment      1: Step Time =    1.000,"P-40-1",          1266,       157.544,       171.249,            0.,NA,NA,"",   1.08909E+06,   1.07195E+06,   1.07195E+06
C:/temp/Job-40.odb,Step-1,Increment      1: Step Time =    1.000,"P-40-1",          1267,       152.839,       120.743,            0.,NA,NA,"",   1.01043E+06,   953.915E+03,   953.915E+03
C:/temp/Job-40.odb,Step-1,Increment      1: Step Time =    1.000,"P-40-1",          1268,       140.008,       125.413,            0.,NA,NA,"",   1.26308E+06,   1.11224E+06,   1.11224E+06
C:/temp/Job-40.odb,Step-1,Increment      1: Step Time =    1.000,"P-40-1",          1269,       112.003,       129.995,            0.,NA,NA,"",   1.74575E+06,   1.83469E+06,   1.83469E+06
C:/temp/Job-40.odb,Step-1,Increment      1: Step Time =    1.000,"P-40-1",          1270,       112.346,       49.7991,            0.,NA,NA,"",   1.22505E+06,   1.29151E+06,   1.29151E+06
C:/temp/Job-40.odb,Step-1,Increment      1: Step Time =    1.000,"P-40-1",          1271,       86.5449,       151.138,            0.,NA,NA,"",   1.24409E+06,   1.29864E+06,   1.29864E+06
C:/temp/Job-40.odb,Step-1,Increment      1: Step Time =    1.000,"P-40-1",          1272,       164.937,       109.547,            0.,NA,NA,"",   820.592E+03,   852.203E+03,   852.203E+03
C:/temp/Job-40.odb,Step-1,Increment      1: Step Time =    1.000,"P-40-1",          1273,       89.4927,       165.631,            0.,NA,NA,"",   1.11255E+06,   1.15325E+06,   1.15325E+06
C:/temp/Job-40.odb,Step-1,Increment      1: Step Time =    1.000,"P-40-1",          1274,       35.0103,       89.3755,            0.,NA,NA,"",   622.751E+03,   686.754E+03,   686.754E+03
C:/temp/Job-40.odb,Step-1,Increment      1: Step Time =    1.000,"P-40-1",          1275,       110.931,       32.7650,            0.,NA,NA,"",   1.07991E+06,   1.11989E+06,   1.11989E+06
C:/temp/Job-40.odb,Step-1,Increment      1: Step Time =    1.000,"P-40-1",          1276,       37.6995,       99.9782,            0.,NA,NA,"",   541.152E+03,   607.433E+03,   607.433E+03
C:/temp/Job-40.odb,Step-1,Increment      1: Step Time =    1.000,"P-40-1",          1277,       102.309,       38.8125,            0.,NA,NA,"",   1.09395E+06,   1.16107E+06,   1.16107E+06
C:/temp/Job-40.odb,Step-1,Increment      1: Step Time =    1.000,"P-40-1",          1278,       161.079,       100.870,            0.,NA,NA,"",   723.562E+03,   761.377E+03,   761.377E+03
C:/temp/Job-40.odb,Step-1,Increment      1: Step Time =    1.000,"P-40-1",          1279,       100.984,       158.149,            0.,NA,NA,"",   1.11720E+06,   1.19338E+06,   1.19338E+06
C:/temp/Job-40.odb,Step-1,Increment      1: Step Time =    1.000,"P-40-1",          1280,       175.134,       154.494,            0.,NA,NA,"",   1.05224E+06,   1.05159E+06,   1.05159E+06
C:/temp/Job-40.odb,Step-1,Increment      1: Step Time =    1.000,"P-40-1",          1281,       45.0284,       173.618,            0.,NA,NA,"",   1.18475E+06,   1.17613E+06,   1.17613E+06
C:/temp/Job-40.odb,Step-1,Increment      1: Step Time =    1.000,"P-40-1",          1282,       154.939,       25.2394,            0.,NA,NA,"",   1.07848E+06,   1.06358E+06,   1.06358E+06
C:/temp/Job-40.odb,Step-1,Increment      1: Step Time =    1.000,"P-40-1",          1283,       25.8875,       42.5610,            0.,NA,NA,"",   1.05285E+06,   1.09431E+06,   1.09431E+06
C:/temp/Job-40.odb,Step-1,Increment      1: Step Time =    1.000,"P-40-1",          1284,       46.1717,       101.172,            0.,NA,NA,"",   469.210E+03,   523.345E+03,   523.345E+03
C:/temp/Job-40.odb,Step-1,Increment      1: Step Time =    1.000,"P-40-1",          1285,       130.711,       63.0384,            0.,NA,NA,"",   1.43790E+06,   1.34314E+06,   1.34314E+06
C:/temp/Job-40.odb,Step-1,Increment      1: Step Time =    1.000,"P-40-1",          1286,       116.084,       166.018,            0.,NA,NA,"",   1.10560E+06,   1.13577E+06,   1.13577E+06
C:/temp/Job-40.odb,Step-1,Increment      1: Step Time =    1.000,"P-40-1",          1287,       164.744,       83.6430,            0.,NA,NA,"",   900.644E+03,   913.106E+03,   913.106E+03
C:/temp/Job-40.odb,Step-1,Increment      1: Step Time =    1.000,"P-40-1",          1288,       34.3812,       114.050,            0.,NA,NA,"",   663.788E+03,   724.307E+03,   724.307E+03
C:/temp/Job-40.odb,Step-1,Increment      1: Step Time =    1.000,"P-40-1",          1289,       85.4010,       39.3414,            0.,NA,NA,"",   1.16357E+06,   1.20100E+06,   1.20100E+06
C:/temp/Job-40.odb,Step-1,Increment      1: Step Time =    1.000,"P-40-1",          1290,       45.9924,       91.9067,            0.,NA,NA,"",   554.141E+03,   598.419E+03,   598.419E+03
C:/temp/Job-40.odb,Step-1,Increment      1: Step Time =    1.000,"P-40-1",          1291,       67.8418,       56.0192,            0.,NA,NA,"",   1.33939E+06,   1.28639E+06,   1.28639E+06
C:/temp/Job-40.odb,Step-1,Increment      1: Step Time =    1.000,"P-40-1",          1292,       88.9601,       55.8812,            0.,NA,NA,"",   1.30853E+06,   1.38800E+06,   1.38800E+06
C:/temp/Job-40.odb,Step-1,Increment      1: Step Time =    1.000,"P-40-1",          1293,       36.3268,       125.086,            0.,NA,NA,"",   814.810E+03,   852.630E+03,   852.630E+03
C:/temp/Job-40.odb,Step-1,Increment      1: Step Time =    1.000,"P-40-1",          1294,       160.735,       73.1630,            0.,NA,NA,"",   1.05029E+06,   1.01914E+06,   1.01914E+06
C:/temp/Job-40.odb,Step-1,Increment      1: Step Time =    1.000,"P-40-1",          1295,       127.603,       161.612,            0.,NA,NA,"",   1.19159E+06,   1.18342E+06,   1.18342E+06
C:/temp/Job-40.odb,Step-1,Increment      1: Step Time =    1.000,"P-40-1",          1296,       72.7379,       35.9428,            0.,NA,NA,"",   1.20434E+06,   1.20011E+06,   1.20011E+06
C:/temp/Job-40.odb,Step-1,Increment      1: Step Time =    1.000,"P-40-1",          1297,       44.4220,       118.494,            0.,NA,NA,"",   755.759E+03,   775.720E+03,   775.720E+03
C:/temp/Job-40.odb,Step-1,Increment      1: Step Time =    1.000,"P-40-1",          1298,       38.1938,       131.456,            0.,NA,NA,"",   905.613E+03,   928.128E+03,   928.128E+03
C:/temp/Job-40.odb,Step-1,Increment      1: Step Time =    1.000,"P-40-1",          1299,       162.483,       63.7562,            0.,NA,NA,"",   1.11237E+06,   1.07775E+06,   1.07775E+06
C:/temp/Job-40.odb,Step-1,Increment      1: Step Time =    1.000,"P-40-1",          1300,       135.681,       163.491,            0.,NA,NA,"",   1.18210E+06,   1.15849E+06,   1.15849E+06
C:/temp/Job-40.odb,Step-1,Increment      1: Step Time =    1.000,"P-40-1",          1301,       63.9936,       36.1166,            0.,NA,NA,"",   1.22265E+06,   1.20302E+06,   1.20302E+06
C:/temp/Job-40.odb,Step-1,Increment      1: Step Time =    1.000,"P-40-1",          1302,       77.7326,       51.4783,            0.,NA,NA,"",   1.32102E+06,   1.32365E+06,   1.32365E+06
C:/temp/Job-40.odb,Step-1,Increment      1: Step Time =    1.000,"P-40-1",          1303,       55.0504,       67.6761,            0.,NA,NA,"",   1.14069E+06,   1.07841E+06,   1.07841E+06
C:/temp/Job-40.odb,Step-1,Increment      1: Step Time =    1.000,"P-40-1",          1304,       154.962,       184.696,            0.,NA,NA,"",   1.03315E+06,   1.02666E+06,   1.02666E+06
C:/temp/Job-40.odb,Step-1,Increment      1: Step Time =    1.000,"P-40-1",          1305,       184.873,       45.1369,            0.,NA,NA,"",   1.00710E+06,   1.02364E+06,   1.02364E+06
C:/temp/Job-40.odb,Step-1,Increment      1: Step Time =    1.000,"P-40-1",          1306,       47.1297,       13.1558,            0.,NA,NA,"",   1.15192E+06,   1.14725E+06,   1.14725E+06
C:/temp/Job-40.odb,Step-1,Increment      1: Step Time =    1.000,"P-40-1",          1307,       167.272,       37.4040,            0.,NA,NA,"",   1.08312E+06,   1.06917E+06,   1.06917E+06
C:/temp/Job-40.odb,Step-1,Increment      1: Step Time =    1.000,"P-40-1",          1308,       37.9320,       166.152,            0.,NA,NA,"",   1.16132E+06,   1.16464E+06,   1.16464E+06
C:/temp/Job-40.odb,Step-1,Increment      1: Step Time =    1.000,"P-40-1",          1309,       166.166,       162.560,            0.,NA,NA,"",   1.08577E+06,   1.07100E+06,   1.07100E+06
C:/temp/Job-40.odb,Step-1,Increment      1: Step Time =    1.000,"P-40-1",          1310,       158.691,       167.493,            0.,NA,NA,"",   1.10134E+06,   1.08133E+06,   1.08133E+06
C:/temp/Job-40.odb,Step-1,Increment      1: Step Time =    1.000,"P-40-1",          1311,       32.6972,       36.2966,            0.,NA,NA,"",   1.13024E+06,   1.14736E+06,   1.14736E+06
C:/temp/Job-40.odb,Step-1,Increment      1: Step Time =    1.000,"P-40-1",          1312,       36.6134,       34.7298,            0.,NA,NA,"",   1.15435E+06,   1.16053E+06,   1.16053E+06
C:/temp/Job-40.odb,Step-1,Increment      1: Step Time =    1.000,"P-40-1",          1313,       163.031,       35.0258,            0.,NA,NA,"",   1.09425E+06,   1.07654E+06,   1.07654E+06
C:/temp/Job-40.odb,Step-1,Increment      1: Step Time =    1.000,"P-40-1",          1314,       34.1539,       163.688,            0.,NA,NA,"",   1.13767E+06,   1.15069E+06,   1.15069E+06
C:/temp/Job-40.odb,Step-1,Increment      1: Step Time =    1.000,"P-40-1",          1315,       153.662,       172.639,            0.,NA,NA,"",   1.09159E+06,   1.07397E+06,   1.07397E+06
C:/temp/Job-40.odb,Step-1,Increment      1: Step Time =    1.000,"P-40-1",          1316,       26.7295,       157.802,            0.,NA,NA,"",   1.06052E+06,   1.09933E+06,   1.09933E+06
C:/temp/Job-40.odb,Step-1,Increment      1: Step Time =    1.000,"P-40-1",          1317,       43.7813,       27.3327,            0.,NA,NA,"",   1.18541E+06,   1.17804E+06,   1.17804E+06
C:/temp/Job-40.odb,Step-1,Increment      1: Step Time =    1.000,"P-40-1",          1318,       173.848,       46.5437,            0.,NA,NA,"",   1.06098E+06,   1.05735E+06,   1.05735E+06
C:/temp/Job-40.odb,Step-1,Increment      1: Step Time =    1.000,"P-40-1",          1319,       148.867,       168.060,            0.,NA,NA,"",   1.12884E+06,   1.10381E+06,   1.10381E+06
C:/temp/Job-40.odb,Step-1,Increment      1: Step Time =    1.000,"P-40-1",          1320,       49.5220,       31.3587,            0.,NA,NA,"",   1.19464E+06,   1.17974E+06,   1.17974E+06
C:/temp/Job-40.odb,Step-1,Increment      1: Step Time =    1.000,"P-40-1",          1321,       33.0643,       148.945,            0.,NA,NA,"",   1.03995E+06,   1.06372E+06,   1.06372E+06
C:/temp/Job-40.odb,Step-1,Increment      1: Step Time =    1.000,"P-40-1",          1322,       168.459,       49.8383,            0.,NA,NA,"",   1.09270E+06,   1.07739E+06,   1.07739E+06
C:/temp/Job-40.odb,Step-1,Increment      1: Step Time =    1.000,"P-40-1",          1323,       39.1393,       120.643,            0.,NA,NA,"",   766.455E+03,   802.441E+03,   802.441E+03
C:/temp/Job-40.odb,Step-1,Increment      1: Step Time =    1.000,"P-40-1",          1324,       161.685,       161.391,            0.,NA,NA,"",   1.11059E+06,   1.08825E+06,   1.08825E+06
C:/temp/Job-40.odb,Step-1,Increment      1: Step Time =    1.000,"P-40-1",          1325,       161.837,       37.7666,            0.,NA,NA,"",   1.10787E+06,   1.08667E+06,   1.08667E+06
C:/temp/Job-40.odb,Step-1,Increment      1: Step Time =    1.000,"P-40-1",          1326,       37.9211,       38.5003,            0.,NA,NA,"",   1.14746E+06,   1.15088E+06,   1.15088E+06
C:/temp/Job-40.odb,Step-1,Increment      1: Step Time =    1.000,"P-40-1",          1327,       154.260,       30.3198,            0.,NA,NA,"",   1.10354E+06,   1.08331E+06,   1.08331E+06
C:/temp/Job-40.odb,Step-1,Increment      1: Step Time =    1.000,"P-40-1",          1328,       27.3100,       46.5734,            0.,NA,NA,"",   1.03205E+06,   1.07194E+06,   1.07194E+06
C:/temp/Job-40.odb,Step-1,Increment      1: Step Time =    1.000,"P-40-1",          1329,       170.220,       153.744,            0.,NA,NA,"",   1.07819E+06,   1.06800E+06,   1.06800E+06
C:/temp/Job-40.odb,Step-1,Increment      1: Step Time =    1.000,"P-40-1",          1330,       47.1532,       169.450,            0.,NA,NA,"",   1.19074E+06,   1.17847E+06,   1.17847E+06
C:/temp/Job-40.odb,Step-1,Increment      1: Step Time =    1.000,"P-40-1",          1331,       159.150,       30.2536,            0.,NA,NA,"",   1.08970E+06,   1.07250E+06,   1.07250E+06
C:/temp/Job-40.odb,Step-1,Increment      1: Step Time =    1.000,"P-40-1",          1332,       24.4594,       38.7261,            0.,NA,NA,"",   1.07178E+06,   1.11494E+06,   1.11494E+06
C:/temp/Job-40.odb,Step-1,Increment      1: Step Time =    1.000,"P-40-1",          1333,       170.537,       158.763,            0.,NA,NA,"",   1.07176E+06,   1.06260E+06,   1.06260E+06
C:/temp/Job-40.odb,Step-1,Increment      1: Step Time =    1.000,"P-40-1",          1334,       86.1667,       155.991,            0.,NA,NA,"",   1.19807E+06,   1.24371E+06,   1.24371E+06
C:/temp/Job-40.odb,Step-1,Increment      1: Step Time =    1.000,"P-40-1",          1335,       112.724,       43.0489,            0.,NA,NA,"",   1.15866E+06,   1.21196E+06,   1.21196E+06
C:/temp/Job-40.odb,Step-1,Increment      1: Step Time =    1.000,"P-40-1",          1336,       183.076,       48.3719,            0.,NA,NA,"",   1.01279E+06,   1.02923E+06,   1.02923E+06
C:/temp/Job-40.odb,Step-1,Increment      1: Step Time =    1.000,"P-40-1",          1337,       16.9427,       149.509,            0.,NA,NA,"",   933.414E+03,   1.00700E+06,   1.00700E+06
C:/temp/Job-40.odb,Step-1,Increment      1: Step Time =    1.000,"P-40-1",          1338,       49.4440,       14.6080,            0.,NA,NA,"",   1.15206E+06,   1.14676E+06,   1.14676E+06
C:/temp/Job-40.odb,Step-1,Increment      1: Step Time =    1.000,"P-40-1",          1339,       151.709,       182.838,            0.,NA,NA,"",   1.04354E+06,   1.03505E+06,   1.03505E+06
C:/temp/Job-40.odb,Step-1,Increment      1: Step Time =    1.000,"P-40-1",          1340,       77.1079,       155.506,            0.,NA,NA,"",   1.26102E+06,   1.26515E+06,   1.26515E+06
C:/temp/Job-40.odb,Step-1,Increment      1: Step Time =    1.000,"P-40-1",          1341,       119.328,       42.6148,            0.,NA,NA,"",   1.19400E+06,   1.21785E+06,   1.21785E+06
C:/temp/Job-40.odb,Step-1,Increment      1: Step Time =    1.000,"P-40-1",          1342,       110.041,       149.968,            0.,NA,NA,"",   1.20903E+06,   1.29089E+06,   1.29089E+06
C:/temp/Job-40.odb,Step-1,Increment      1: Step Time =    1.000,"P-40-1",          1343,       119.070,       156.284,            0.,NA,NA,"",   1.20434E+06,   1.23081E+06,   1.23081E+06
C:/temp/Job-40.odb,Step-1,Increment      1: Step Time =    1.000,"P-40-1",          1344,       63.0596,       59.6788,            0.,NA,NA,"",   1.29589E+06,   1.23012E+06,   1.23012E+06
C:/temp/Job-40.odb,Step-1,Increment      1: Step Time =    1.000,"P-40-1",          1345,       43.0365,       130.726,            0.,NA,NA,"",   945.674E+03,   947.562E+03,   947.562E+03
C:/temp/Job-40.odb,Step-1,Increment      1: Step Time =    1.000,"P-40-1",          1346,       156.231,       67.4426,            0.,NA,NA,"",   1.14128E+06,   1.08289E+06,   1.08289E+06
C:/temp/Job-40.odb,Step-1,Increment      1: Step Time =    1.000,"P-40-1",          1347,       140.016,       130.729,            0.,NA,NA,"",   1.33535E+06,   1.20159E+06,   1.20159E+06
C:/temp/Job-40.odb,Step-1,Increment      1: Step Time =    1.000,"P-40-1",          1348,       68.0072,       51.3473,            0.,NA,NA,"",   1.31610E+06,   1.27634E+06,   1.27634E+06
C:/temp/Job-40.odb,Step-1,Increment      1: Step Time =    1.000,"P-40-1",          1349,       119.846,       160.933,            0.,NA,NA,"",   1.16556E+06,   1.18773E+06,   1.18773E+06
C:/temp/Job-40.odb,Step-1,Increment      1: Step Time =    1.000,"P-40-1",          1350,       80.5390,       38.2765,            0.,NA,NA,"",   1.18644E+06,   1.20441E+06,   1.20441E+06
C:/temp/Job-40.odb,Step-1,Increment      1: Step Time =    1.000,"P-40-1",          1351,       45.5856,       86.3223,            0.,NA,NA,"",   662.780E+03,   691.240E+03,   691.240E+03
C:/temp/Job-40.odb,Step-1,Increment      1: Step Time =    1.000,"P-40-1",          1352,       81.5640,       59.0940,            0.,NA,NA,"",   1.40572E+06,   1.42649E+06,   1.42649E+06
C:/temp/Job-40.odb,Step-1,Increment      1: Step Time =    1.000,"P-40-1",          1353,       35.1155,       138.269,            0.,NA,NA,"",   962.716E+03,   987.786E+03,   987.786E+03
C:/temp/Job-40.odb,Step-1,Increment      1: Step Time =    1.000,"P-40-1",          1354,       39.6516,       126.875,            0.,NA,NA,"",   859.835E+03,   882.317E+03,   882.317E+03
C:/temp/Job-40.odb,Step-1,Increment      1: Step Time =    1.000,"P-40-1",          1355,       163.132,       59.1079,            0.,NA,NA,"",   1.12460E+06,   1.09165E+06,   1.09165E+06
C:/temp/Job-40.odb,Step-1,Increment      1: Step Time =    1.000,"P-40-1",          1356,       161.558,       68.4455,            0.,NA,NA,"",   1.08783E+06,   1.05343E+06,   1.05343E+06
C:/temp/Job-40.odb,Step-1,Increment      1: Step Time =    1.000,"P-40-1",          1357,       131.438,       162.773,            0.,NA,NA,"",   1.18624E+06,   1.17033E+06,   1.17033E+06
C:/temp/Job-40.odb,Step-1,Increment      1: Step Time =    1.000,"P-40-1",          1358,       139.919,       163.894,            0.,NA,NA,"",   1.17663E+06,   1.14806E+06,   1.14806E+06
C:/temp/Job-40.odb,Step-1,Increment      1: Step Time =    1.000,"P-40-1",          1359,       59.3238,       35.8532,            0.,NA,NA,"",   1.22061E+06,   1.19793E+06,   1.19793E+06
C:/temp/Job-40.odb,Step-1,Increment      1: Step Time =    1.000,"P-40-1",          1360,       68.5536,       36.3087,            0.,NA,NA,"",   1.21773E+06,   1.20459E+06,   1.20459E+06
C:/temp/Job-40.odb,Step-1,Increment      1: Step Time =    1.000,"P-40-1",          1361,       75.3752,       45.5305,            0.,NA,NA,"",   1.27096E+06,   1.26848E+06,   1.26848E+06
C:/temp/Job-40.odb,Step-1,Increment      1: Step Time =    1.000,"P-40-1",          1362,       48.1099,       71.3613,            0.,NA,NA,"",   975.873E+03,   953.930E+03,   953.930E+03
C:/temp/Job-40.odb,Step-1,Increment      1: Step Time =    1.000,"P-40-1",          1363,       71.4703,       138.498,            0.,NA,NA,"",   1.38313E+06,   1.31976E+06,   1.31976E+06
C:/temp/Job-40.odb,Step-1,Increment      1: Step Time =    1.000,"P-40-1",          1364,       126.519,       56.4728,            0.,NA,NA,"",   1.38184E+06,   1.34247E+06,   1.34247E+06
C:/temp/Job-40.odb,Step-1,Increment      1: Step Time =    1.000,"P-40-1",          1365,       184.491,       184.935,            0.,NA,NA,"",   1.00543E+06,   1.00662E+06,   1.00662E+06
C:/temp/Job-40.odb,Step-1,Increment      1: Step Time =    1.000,"P-40-1",          1366,       184.977,       15.5199,            0.,NA,NA,"",   1.00510E+06,   1.00645E+06,   1.00645E+06
C:/temp/Job-40.odb,Step-1,Increment      1: Step Time =    1.000,"P-40-1",          1367,       15.3996,       14.5809,            0.,NA,NA,"",   1.25321E+06,   1.29076E+06,   1.29076E+06
C:/temp/Job-40.odb,Step-1,Increment      1: Step Time =    1.000,"P-40-1",          1368,       35.5037,       109.223,            0.,NA,NA,"",   609.521E+03,   673.481E+03,   673.481E+03
C:/temp/Job-40.odb,Step-1,Increment      1: Step Time =    1.000,"P-40-1",          1369,       90.7056,       39.8972,            0.,NA,NA,"",   1.13682E+06,   1.19087E+06,   1.19087E+06
C:/temp/Job-40.odb,Step-1,Increment      1: Step Time =    1.000,"P-40-1",          1370,       160.253,       90.1229,            0.,NA,NA,"",   793.817E+03,   811.172E+03,   811.172E+03
C:/temp/Job-40.odb,Step-1,Increment      1: Step Time =    1.000,"P-40-1",          1371,       107.207,       162.356,            0.,NA,NA,"",   1.09710E+06,   1.15495E+06,   1.15495E+06
C:/temp/Job-40.odb,Step-1,Increment      1: Step Time =    1.000,"P-40-1",          1372,       109.661,       39.5943,            0.,NA,NA,"",   1.11644E+06,   1.17334E+06,   1.17334E+06
C:/temp/Job-40.odb,Step-1,Increment      1: Step Time =    1.000,"P-40-1",          1373,       39.9781,       88.1066,            0.,NA,NA,"",   631.890E+03,   683.899E+03,   683.899E+03
C:/temp/Job-40.odb,Step-1,Increment      1: Step Time =    1.000,"P-40-1",          1374,       160.957,       109.273,            0.,NA,NA,"",   792.287E+03,   814.829E+03,   814.829E+03
C:/temp/Job-40.odb,Step-1,Increment      1: Step Time =    1.000,"P-40-1",          1375,       90.3244,       161.030,            0.,NA,NA,"",   1.13568E+06,   1.18683E+06,   1.18683E+06
C:/temp/Job-40.odb,Step-1,Increment      1: Step Time =    1.000,"P-40-1",          1376,       151.413,       123.986,            0.,NA,NA,"",   1.08255E+06,   1.00742E+06,   1.00742E+06
C:/temp/Job-40.odb,Step-1,Increment      1: Step Time =    1.000,"P-40-1",          1377,       142.447,       128.441,            0.,NA,NA,"",   1.28361E+06,   1.14834E+06,   1.14834E+06
C:/temp/Job-40.odb,Step-1,Increment      1: Step Time =    1.000,"P-40-1",          1378,       66.0650,       138.880,            0.,NA,NA,"",   1.33014E+06,   1.25901E+06,   1.25901E+06
C:/temp/Job-40.odb,Step-1,Increment      1: Step Time =    1.000,"P-40-1",          1379,       132.181,       58.1061,            0.,NA,NA,"",   1.38891E+06,   1.31312E+06,   1.31312E+06
C:/temp/Job-40.odb,Step-1,Increment      1: Step Time =    1.000,"P-40-1",          1380,       81.4775,       47.8622,            0.,NA,NA,"",   1.26148E+06,   1.28767E+06,   1.28767E+06
C:/temp/Job-40.odb,Step-1,Increment      1: Step Time =    1.000,"P-40-1",          1381,       42.7305,       97.4457,            0.,NA,NA,"",   509.811E+03,   568.355E+03,   568.355E+03
C:/temp/Job-40.odb,Step-1,Increment      1: Step Time =    1.000,"P-40-1",          1382,       102.349,       46.6351,            0.,NA,NA,"",   1.14386E+06,   1.23550E+06,   1.23550E+06
C:/temp/Job-40.odb,Step-1,Increment      1: Step Time =    1.000,"P-40-1",          1383,       158.576,       104.318,            0.,NA,NA,"",   717.707E+03,   746.460E+03,   746.460E+03
C:/temp/Job-40.odb,Step-1,Increment      1: Step Time =    1.000,"P-40-1",          1384,       190.461,       19.9994,            0.,NA,NA,"",   1.00157E+06,   1.00412E+06,   1.00412E+06
C:/temp/Job-40.odb,Step-1,Increment      1: Step Time =    1.000,"P-40-1",          1385,       180.008,       190.426,            0.,NA,NA,"",   1.00475E+06,   1.00503E+06,   1.00503E+06
C:/temp/Job-40.odb,Step-1,Increment      1: Step Time =    1.000,"P-40-1",          1386,       15.3630,       9.90141,            0.,NA,NA,"",   1.29915E+06,   1.32075E+06,   1.32075E+06
C:/temp/Job-40.odb,Step-1,Increment      1: Step Time =    1.000,"P-40-1",          1387,       10.1162,       184.846,            0.,NA,NA,"",   1.22374E+06,   1.29277E+06,   1.29277E+06
C:/temp/Job-40.odb,Step-1,Increment      1: Step Time =    1.000,"P-40-1",          1388,       113.429,       36.4690,            0.,NA,NA,"",   1.11152E+06,   1.15173E+06,   1.15173E+06
C:/temp/Job-40.odb,Step-1,Increment      1: Step Time =    1.000,"P-40-1",          1389,       37.9279,       83.4453,            0.,NA,NA,"",   696.514E+03,   745.199E+03,   745.199E+03
C:/temp/Job-40.odb,Step-1,Increment      1: Step Time =    1.000,"P-40-1",          1390,       85.2027,       165.104,            0.,NA,NA,"",   1.13861E+06,   1.16926E+06,   1.16926E+06
C:/temp/Job-40.odb,Step-1,Increment      1: Step Time =    1.000,"P-40-1",          1391,       143.433,       133.491,            0.,NA,NA,"",   1.30161E+06,   1.18888E+06,   1.18888E+06
C:/temp/Job-40.odb,Step-1,Increment      1: Step Time =    1.000,"P-40-1",          1392,       156.696,       118.187,            0.,NA,NA,"",   945.293E+03,   916.464E+03,   916.464E+03
C:/temp/Job-40.odb,Step-1,Increment      1: Step Time =    1.000,"P-40-1",          1393,       148.592,       163.718,            0.,NA,NA,"",   1.15663E+06,   1.12478E+06,   1.12478E+06
C:/temp/Job-40.odb,Step-1,Increment      1: Step Time =    1.000,"P-40-1",          1394,       50.2173,       36.1646,            0.,NA,NA,"",   1.20141E+06,   1.18284E+06,   1.18284E+06
C:/temp/Job-40.odb,Step-1,Increment      1: Step Time =    1.000,"P-40-1",          1395,       37.9588,       147.340,            0.,NA,NA,"",   1.06652E+06,   1.07542E+06,   1.07542E+06
C:/temp/Job-40.odb,Step-1,Increment      1: Step Time =    1.000,"P-40-1",          1396,       163.779,       49.6163,            0.,NA,NA,"",   1.12439E+06,   1.09721E+06,   1.09721E+06
C:/temp/Job-40.odb,Step-1,Increment      1: Step Time =    1.000,"P-40-1",          1397,       149.389,       127.167,            0.,NA,NA,"",   1.15874E+06,   1.06559E+06,   1.06559E+06
C:/temp/Job-40.odb,Step-1,Increment      1: Step Time =    1.000,"P-40-1",          1398,       157.298,       162.715,            0.,NA,NA,"",   1.12889E+06,   1.10158E+06,   1.10158E+06
C:/temp/Job-40.odb,Step-1,Increment      1: Step Time =    1.000,"P-40-1",          1399,       163.272,       40.2358,            0.,NA,NA,"",   1.11231E+06,   1.08997E+06,   1.08997E+06
C:/temp/Job-40.odb,Step-1,Increment      1: Step Time =    1.000,"P-40-1",          1400,       37.1631,       158.600,            0.,NA,NA,"",   1.12788E+06,   1.13569E+06,   1.13569E+06
C:/temp/Job-40.odb,Step-1,Increment      1: Step Time =    1.000,"P-40-1",          1401,       41.8553,       37.4222,            0.,NA,NA,"",   1.16962E+06,   1.16425E+06,   1.16425E+06
C:/temp/Job-40.odb,Step-1,Increment      1: Step Time =    1.000,"P-40-1",          1402,       90.8346,       151.481,            0.,NA,NA,"",   1.20580E+06,   1.28238E+06,   1.28238E+06
C:/temp/Job-40.odb,Step-1,Increment      1: Step Time =    1.000,"P-40-1",          1403,       109.129,       46.6517,            0.,NA,NA,"",   1.17067E+06,   1.24602E+06,   1.24602E+06
C:/temp/Job-40.odb,Step-1,Increment      1: Step Time =    1.000,"P-40-1",          1404,       72.9281,       149.985,            0.,NA,NA,"",   1.31711E+06,   1.29572E+06,   1.29572E+06
C:/temp/Job-40.odb,Step-1,Increment      1: Step Time =    1.000,"P-40-1",          1405,       122.821,       45.4246,            0.,NA,NA,"",   1.24375E+06,   1.24944E+06,   1.24944E+06
C:/temp/Job-40.odb,Step-1,Increment      1: Step Time =    1.000,"P-40-1",          1406,       110.863,       156.106,            0.,NA,NA,"",   1.15405E+06,   1.21659E+06,   1.21659E+06
C:/temp/Job-40.odb,Step-1,Increment      1: Step Time =    1.000,"P-40-1",          1407,       126.262,       151.134,            0.,NA,NA,"",   1.29150E+06,   1.27324E+06,   1.27324E+06
C:/temp/Job-40.odb,Step-1,Increment      1: Step Time =    1.000,"P-40-1",          1408,       46.0149,       137.087,            0.,NA,NA,"",   1.06335E+06,   1.04593E+06,   1.04593E+06
C:/temp/Job-40.odb,Step-1,Increment      1: Step Time =    1.000,"P-40-1",          1409,       151.195,       65.5426,            0.,NA,NA,"",   1.20590E+06,   1.12556E+06,   1.12556E+06
C:/temp/Job-40.odb,Step-1,Increment      1: Step Time =    1.000,"P-40-1",          1410,       39.8807,       136.346,            0.,NA,NA,"",   985.386E+03,   994.377E+03,   994.377E+03
C:/temp/Job-40.odb,Step-1,Increment      1: Step Time =    1.000,"P-40-1",          1411,       158.343,       58.4630,            0.,NA,NA,"",   1.16690E+06,   1.11738E+06,   1.11738E+06
C:/temp/Job-40.odb,Step-1,Increment      1: Step Time =    1.000,"P-40-1",          1412,       140.174,       159.355,            0.,NA,NA,"",   1.21269E+06,   1.17519E+06,   1.17519E+06
C:/temp/Job-40.odb,Step-1,Increment      1: Step Time =    1.000,"P-40-1",          1413,       59.3860,       40.8695,            0.,NA,NA,"",   1.23983E+06,   1.21117E+06,   1.21117E+06
C:/temp/Job-40.odb,Step-1,Increment      1: Step Time =    1.000,"P-40-1",          1414,       47.0036,       75.8872,            0.,NA,NA,"",   884.480E+03,   876.456E+03,   876.456E+03
C:/temp/Job-40.odb,Step-1,Increment      1: Step Time =    1.000,"P-40-1",          1415,       90.3305,       45.6149,            0.,NA,NA,"",   1.18111E+06,   1.24603E+06,   1.24603E+06
C:/temp/Job-40.odb,Step-1,Increment      1: Step Time =    1.000,"P-40-1",          1416,       146.165,       130.028,            0.,NA,NA,"",   1.24226E+06,   1.13037E+06,   1.13037E+06
C:/temp/Job-40.odb,Step-1,Increment      1: Step Time =    1.000,"P-40-1",          1417,       78.9848,       43.7952,            0.,NA,NA,"",   1.23948E+06,   1.25337E+06,   1.25337E+06
C:/temp/Job-40.odb,Step-1,Increment      1: Step Time =    1.000,"P-40-1",          1418,       84.5682,       50.8652,            0.,NA,NA,"",   1.27638E+06,   1.32106E+06,   1.32106E+06
C:/temp/Job-40.odb,Step-1,Increment      1: Step Time =    1.000,"P-40-1",          1419,       58.5816,       141.805,            0.,NA,NA,"",   1.25181E+06,   1.19415E+06,   1.19415E+06
C:/temp/Job-40.odb,Step-1,Increment      1: Step Time =    1.000,"P-40-1",          1420,       141.881,       61.2723,            0.,NA,NA,"",   1.32843E+06,   1.22726E+06,   1.22726E+06
C:/temp/Job-40.odb,Step-1,Increment      1: Step Time =    1.000,"P-40-1",          1421,       76.6913,       160.014,            0.,NA,NA,"",   1.22226E+06,   1.22689E+06,   1.22689E+06
C:/temp/Job-40.odb,Step-1,Increment      1: Step Time =    1.000,"P-40-1",          1422,       119.279,       36.4821,            0.,NA,NA,"",   1.14003E+06,   1.16146E+06,   1.16146E+06
C:/temp/Job-40.odb,Step-1,Increment      1: Step Time =    1.000,"P-40-1",          1423,       156.131,       77.0216,            0.,NA,NA,"",   1.02580E+06,   980.900E+03,   980.900E+03
C:/temp/Job-40.odb,Step-1,Increment      1: Step Time =    1.000,"P-40-1",          1424,       58.4644,       59.1433,            0.,NA,NA,"",   1.24518E+06,   1.18735E+06,   1.18735E+06
C:/temp/Job-40.odb,Step-1,Increment      1: Step Time =    1.000,"P-40-1",          1425,       102.109,       152.944,            0.,NA,NA,"",   1.15240E+06,   1.24269E+06,   1.24269E+06
C:/temp/Job-40.odb,Step-1,Increment      1: Step Time =    1.000,"P-40-1",          1426,       98.7525,       49.8978,            0.,NA,NA,"",   1.17691E+06,   1.27882E+06,   1.27882E+06
C:/temp/Job-40.odb,Step-1,Increment      1: Step Time =    1.000,"P-40-1",          1427,       162.532,       155.745,            0.,NA,NA,"",   1.12079E+06,   1.09519E+06,   1.09519E+06
C:/temp/Job-40.odb,Step-1,Increment      1: Step Time =    1.000,"P-40-1",          1428,       154.859,       34.9345,            0.,NA,NA,"",   1.12516E+06,   1.09975E+06,   1.09975E+06
C:/temp/Job-40.odb,Step-1,Increment      1: Step Time =    1.000,"P-40-1",          1429,       31.9288,       45.8320,            0.,NA,NA,"",   1.06989E+06,   1.09456E+06,   1.09456E+06
C:/temp/Job-40.odb,Step-1,Increment      1: Step Time =    1.000,"P-40-1",          1430,       44.5624,       166.300,            0.,NA,NA,"",   1.18481E+06,   1.17519E+06,   1.17519E+06
C:/temp/Job-40.odb,Step-1,Increment      1: Step Time =    1.000,"P-40-1",          1431,       34.3553,       40.2275,            0.,NA,NA,"",   1.11985E+06,   1.13396E+06,   1.13396E+06
C:/temp/Job-40.odb,Step-1,Increment      1: Step Time =    1.000,"P-40-1",          1432,       41.2848,       162.575,            0.,NA,NA,"",   1.16515E+06,   1.16183E+06,   1.16183E+06
C:/temp/Job-40.odb,Step-1,Increment      1: Step Time =    1.000,"P-40-1",          1433,       159.066,       37.9775,            0.,NA,NA,"",   1.12257E+06,   1.09746E+06,   1.09746E+06
C:/temp/Job-40.odb,Step-1,Increment      1: Step Time =    1.000,"P-40-1",          1434,       163.717,       158.578,            0.,NA,NA,"",   1.10724E+06,   1.08613E+06,   1.08613E+06
C:/temp/Job-40.odb,Step-1,Increment      1: Step Time =    1.000,"P-40-1",          1435,       66.1695,       147.299,            0.,NA,NA,"",   1.30796E+06,   1.26228E+06,   1.26228E+06
C:/temp/Job-40.odb,Step-1,Increment      1: Step Time =    1.000,"P-40-1",          1436,       129.796,       51.5017,            0.,NA,NA,"",   1.32335E+06,   1.28299E+06,   1.28299E+06
C:/temp/Job-40.odb,Step-1,Increment      1: Step Time =    1.000,"P-40-1",          1437,       101.340,       53.8074,            0.,NA,NA,"",   1.22585E+06,   1.34360E+06,   1.34360E+06
C:/temp/Job-40.odb,Step-1,Increment      1: Step Time =    1.000,"P-40-1",          1438,       150.065,       133.692,            0.,NA,NA,"",   1.21999E+06,   1.13274E+06,   1.13274E+06
C:/temp/Job-40.odb,Step-1,Increment      1: Step Time =    1.000,"P-40-1",          1439,       164.062,       44.6206,            0.,NA,NA,"",   1.11855E+06,   1.09410E+06,   1.09410E+06
C:/temp/Job-40.odb,Step-1,Increment      1: Step Time =    1.000,"P-40-1",          1440,       45.9278,       36.7029,            0.,NA,NA,"",   1.18674E+06,   1.17407E+06,   1.17407E+06
C:/temp/Job-40.odb,Step-1,Increment      1: Step Time =    1.000,"P-40-1",          1441,       152.962,       163.383,            0.,NA,NA,"",   1.14329E+06,   1.11307E+06,   1.11307E+06
C:/temp/Job-40.odb,Step-1,Increment      1: Step Time =    1.000,"P-40-1",          1442,       39.5269,       151.136,            0.,NA,NA,"",   1.10604E+06,   1.10842E+06,   1.10842E+06
C:/temp/Job-40.odb,Step-1,Increment      1: Step Time =    1.000,"P-40-1",          1443,       36.8473,       142.827,            0.,NA,NA,"",   1.02144E+06,   1.03701E+06,   1.03701E+06
C:/temp/Job-40.odb,Step-1,Increment      1: Step Time =    1.000,"P-40-1",          1444,       163.444,       54.4512,            0.,NA,NA,"",   1.12776E+06,   1.09745E+06,   1.09745E+06
C:/temp/Job-40.odb,Step-1,Increment      1: Step Time =    1.000,"P-40-1",          1445,       54.7228,       35.8608,            0.,NA,NA,"",   1.21321E+06,   1.19107E+06,   1.19107E+06
C:/temp/Job-40.odb,Step-1,Increment      1: Step Time =    1.000,"P-40-1",          1446,       144.233,       163.977,            0.,NA,NA,"",   1.16842E+06,   1.13698E+06,   1.13698E+06
C:/temp/Job-40.odb,Step-1,Increment      1: Step Time =    1.000,"P-40-1",          1447,       42.6965,       141.201,            0.,NA,NA,"",   1.06347E+06,   1.05808E+06,   1.05808E+06
C:/temp/Job-40.odb,Step-1,Increment      1: Step Time =    1.000,"P-40-1",          1448,       157.520,       62.8738,            0.,NA,NA,"",   1.15852E+06,   1.10472E+06,   1.10472E+06
C:/temp/Job-40.odb,Step-1,Increment      1: Step Time =    1.000,"P-40-1",          1449,       59.2674,       45.6408,            0.,NA,NA,"",   1.25436E+06,   1.21888E+06,   1.21888E+06
C:/temp/Job-40.odb,Step-1,Increment      1: Step Time =    1.000,"P-40-1",          1450,       144.180,       156.344,            0.,NA,NA,"",   1.22114E+06,   1.17453E+06,   1.17453E+06
C:/temp/Job-40.odb,Step-1,Increment      1: Step Time =    1.000,"P-40-1",          1451,       48.4754,       138.626,            0.,NA,NA,"",   1.09997E+06,   1.07465E+06,   1.07465E+06
C:/temp/Job-40.odb,Step-1,Increment      1: Step Time =    1.000,"P-40-1",          1452,       152.852,       61.4030,            0.,NA,NA,"",   1.20644E+06,   1.13714E+06,   1.13714E+06
C:/temp/Job-40.odb,Step-1,Increment      1: Step Time =    1.000,"P-40-1",          1453,       132.017,       150.643,            0.,NA,NA,"",   1.30138E+06,   1.25940E+06,   1.25940E+06
C:/temp/Job-40.odb,Step-1,Increment      1: Step Time =    1.000,"P-40-1",          1454,       89.9234,       51.1188,            0.,NA,NA,"",   1.24026E+06,   1.31509E+06,   1.31509E+06
C:/temp/Job-40.odb,Step-1,Increment      1: Step Time =    1.000,"P-40-1",          1455,       54.1388,       143.707,            0.,NA,NA,"",   1.20745E+06,   1.16273E+06,   1.16273E+06
C:/temp/Job-40.odb,Step-1,Increment      1: Step Time =    1.000,"P-40-1",          1456,       148.733,       58.9637,            0.,NA,NA,"",   1.25441E+06,   1.17486E+06,   1.17486E+06
C:/temp/Job-40.odb,Step-1,Increment      1: Step Time =    1.000,"P-40-1",          1457,       81.2827,       160.234,            0.,NA,NA,"",   1.19541E+06,   1.21731E+06,   1.21731E+06
C:/temp/Job-40.odb,Step-1,Increment      1: Step Time =    1.000,"P-40-1",          1458,       117.145,       33.7395,            0.,NA,NA,"",   1.10950E+06,   1.13537E+06,   1.13537E+06
C:/temp/Job-40.odb,Step-1,Increment      1: Step Time =    1.000,"P-40-1",          1459,       58.7477,       63.5665,            0.,NA,NA,"",   1.22991E+06,   1.16214E+06,   1.16214E+06
C:/temp/Job-40.odb,Step-1,Increment      1: Step Time =    1.000,"P-40-1",          1460,       101.375,       149.567,            0.,NA,NA,"",   1.18406E+06,   1.28563E+06,   1.28563E+06
C:/temp/Job-40.odb,Step-1,Increment      1: Step Time =    1.000,"P-40-1",          1461,       67.4220,       151.217,            0.,NA,NA,"",   1.29675E+06,   1.26111E+06,   1.26111E+06
C:/temp/Job-40.odb,Step-1,Increment      1: Step Time =    1.000,"P-40-1",          1462,       126.344,       48.4145,            0.,NA,NA,"",   1.29059E+06,   1.27376E+06,   1.27376E+06
C:/temp/Job-40.odb,Step-1,Increment      1: Step Time =    1.000,"P-40-1",          1463,       105.427,       50.4763,            0.,NA,NA,"",   1.19223E+06,   1.29115E+06,   1.29115E+06
C:/temp/Job-40.odb,Step-1,Increment      1: Step Time =    1.000,"P-40-1",          1464,       44.8106,       72.5998,            0.,NA,NA,"",   915.530E+03,   913.826E+03,   913.826E+03
C:/temp/Job-40.odb,Step-1,Increment      1: Step Time =    1.000,"P-40-1",          1465,       152.138,       54.2508,            0.,NA,NA,"",   1.21790E+06,   1.15677E+06,   1.15677E+06
C:/temp/Job-40.odb,Step-1,Increment      1: Step Time =    1.000,"P-40-1",          1466,       49.1717,       145.569,            0.,NA,NA,"",   1.16034E+06,   1.13214E+06,   1.13214E+06
C:/temp/Job-40.odb,Step-1,Increment      1: Step Time =    1.000,"P-40-1",          1467,       76.2952,       164.474,            0.,NA,NA,"",   1.18940E+06,   1.19366E+06,   1.19366E+06
C:/temp/Job-40.odb,Step-1,Increment      1: Step Time =    1.000,"P-40-1",          1468,       124.069,       35.7606,            0.,NA,NA,"",   1.15456E+06,   1.16037E+06,   1.16037E+06
C:/temp/Job-40.odb,Step-1,Increment      1: Step Time =    1.000,"P-40-1",          1469,       153.246,       130.449,            0.,NA,NA,"",   1.15568E+06,   1.08229E+06,   1.08229E+06
C:/temp/Job-40.odb,Step-1,Increment      1: Step Time =    1.000,"P-40-1",          1470,       63.6915,       46.0864,            0.,NA,NA,"",   1.27482E+06,   1.24025E+06,   1.24025E+06
C:/temp/Job-40.odb,Step-1,Increment      1: Step Time =    1.000,"P-40-1",          1471,       140.912,       154.978,            0.,NA,NA,"",   1.24252E+06,   1.19448E+06,   1.19448E+06
C:/temp/Job-40.odb,Step-1,Increment      1: Step Time =    1.000,"P-40-1",          1472,       47.4275,       67.9690,            0.,NA,NA,"",   1.01905E+06,   997.719E+03,   997.719E+03
C:/temp/Job-40.odb,Step-1,Increment      1: Step Time =    1.000,"P-40-1",          1473,       130.240,       146.438,            0.,NA,NA,"",   1.35072E+06,   1.30197E+06,   1.30197E+06
C:/temp/Job-40.odb,Step-1,Increment      1: Step Time =    1.000,"P-40-1",          1474,       39.1466,       70.1612,            0.,NA,NA,"",   897.187E+03,   916.941E+03,   916.941E+03
C:/temp/Job-40.odb,Step-1,Increment      1: Step Time =    1.000,"P-40-1",          1475,       92.8927,       48.9144,            0.,NA,NA,"",   1.19402E+06,   1.27685E+06,   1.27685E+06
C:/temp/Job-40.odb,Step-1,Increment      1: Step Time =    1.000,"P-40-1",          1476,       55.6507,       147.274,            0.,NA,NA,"",   1.22989E+06,   1.18738E+06,   1.18738E+06
C:/temp/Job-40.odb,Step-1,Increment      1: Step Time =    1.000,"P-40-1",          1477,       144.047,       56.7167,            0.,NA,NA,"",   1.29601E+06,   1.21343E+06,   1.21343E+06
C:/temp/Job-40.odb,Step-1,Increment      1: Step Time =    1.000,"P-40-1",          1478,       59.3717,       68.1816,            0.,NA,NA,"",   1.20225E+06,   1.12043E+06,   1.12043E+06
C:/temp/Job-40.odb,Step-1,Increment      1: Step Time =    1.000,"P-40-1",          1479,       94.4955,       152.569,            0.,NA,NA,"",   1.17208E+06,   1.26060E+06,   1.26060E+06
C:/temp/Job-40.odb,Step-1,Increment      1: Step Time =    1.000,"P-40-1",          1480,       137.960,       138.706,            0.,NA,NA,"",   1.36250E+06,   1.26160E+06,   1.26160E+06
C:/temp/Job-40.odb,Step-1,Increment      1: Step Time =    1.000,"P-40-1",          1481,       126.015,       41.1795,            0.,NA,NA,"",   1.21184E+06,   1.20744E+06,   1.20744E+06
C:/temp/Job-40.odb,Step-1,Increment      1: Step Time =    1.000,"P-40-1",          1482,       67.7499,       155.391,            0.,NA,NA,"",   1.27527E+06,   1.24821E+06,   1.24821E+06
C:/temp/Job-40.odb,Step-1,Increment      1: Step Time =    1.000,"P-40-1",          1483,       105.668,       152.341,            0.,NA,NA,"",   1.16387E+06,   1.25119E+06,   1.25119E+06
C:/temp/Job-40.odb,Step-1,Increment      1: Step Time =    1.000,"P-40-1",          1484,       53.6836,       59.0727,            0.,NA,NA,"",   1.18890E+06,   1.14282E+06,   1.14282E+06
C:/temp/Job-40.odb,Step-1,Increment      1: Step Time =    1.000,"P-40-1",          1485,       62.7568,       152.326,            0.,NA,NA,"",   1.27135E+06,   1.23311E+06,   1.23311E+06
C:/temp/Job-40.odb,Step-1,Increment      1: Step Time =    1.000,"P-40-1",          1486,       132.267,       47.9676,            0.,NA,NA,"",   1.28920E+06,   1.24952E+06,   1.24952E+06
C:/temp/Job-40.odb,Step-1,Increment      1: Step Time =    1.000,"P-40-1",          1487,       35.4764,       79.2948,            0.,NA,NA,"",   749.354E+03,   797.555E+03,   797.555E+03
C:/temp/Job-40.odb,Step-1,Increment      1: Step Time =    1.000,"P-40-1",          1488,       165.011,       113.961,            0.,NA,NA,"",   871.158E+03,   891.980E+03,   891.980E+03
C:/temp/Job-40.odb,Step-1,Increment      1: Step Time =    1.000,"P-40-1",          1489,       152.361,       159.002,            0.,NA,NA,"",   1.16776E+06,   1.13040E+06,   1.13040E+06
C:/temp/Job-40.odb,Step-1,Increment      1: Step Time =    1.000,"P-40-1",          1490,       46.4762,       41.2166,            0.,NA,NA,"",   1.18293E+06,   1.16777E+06,   1.16777E+06
C:/temp/Job-40.odb,Step-1,Increment      1: Step Time =    1.000,"P-40-1",          1491,       159.123,       44.8540,            0.,NA,NA,"",   1.14867E+06,   1.11488E+06,   1.11488E+06
C:/temp/Job-40.odb,Step-1,Increment      1: Step Time =    1.000,"P-40-1",          1492,       67.5762,       159.597,            0.,NA,NA,"",   1.24888E+06,   1.22804E+06,   1.22804E+06
C:/temp/Job-40.odb,Step-1,Increment      1: Step Time =    1.000,"P-40-1",          1493,       132.264,       38.8338,            0.,NA,NA,"",   1.20085E+06,   1.17985E+06,   1.17985E+06
C:/temp/Job-40.odb,Step-1,Increment      1: Step Time =    1.000,"P-40-1",          1494,       160.893,       128.977,            0.,NA,NA,"",   1.07010E+06,   1.03676E+06,   1.03676E+06
C:/temp/Job-40.odb,Step-1,Increment      1: Step Time =    1.000,"P-40-1",          1495,       136.283,       48.6420,            0.,NA,NA,"",   1.28752E+06,   1.23711E+06,   1.23711E+06
C:/temp/Job-40.odb,Step-1,Increment      1: Step Time =    1.000,"P-40-1",          1496,       59.0851,       153.108,            0.,NA,NA,"",   1.25333E+06,   1.21585E+06,   1.21585E+06
C:/temp/Job-40.odb,Step-1,Increment      1: Step Time =    1.000,"P-40-1",          1497,       51.1059,       149.541,            0.,NA,NA,"",   1.19289E+06,   1.16271E+06,   1.16271E+06
C:/temp/Job-40.odb,Step-1,Increment      1: Step Time =    1.000,"P-40-1",          1498,       153.357,       48.7943,            0.,NA,NA,"",   1.19586E+06,   1.14682E+06,   1.14682E+06
C:/temp/Job-40.odb,Step-1,Increment      1: Step Time =    1.000,"P-40-1",          1499,       58.4931,       54.6821,            0.,NA,NA,"",   1.25528E+06,   1.20526E+06,   1.20526E+06
C:/temp/Job-40.odb,Step-1,Increment      1: Step Time =    1.000,"P-40-1",          1500,       48.4373,       60.1327,            0.,NA,NA,"",   1.11763E+06,   1.08942E+06,   1.08942E+06
C:/temp/Job-40.odb,Step-1,Increment      1: Step Time =    1.000,"P-40-1",          1501,       80.7971,       164.577,            0.,NA,NA,"",   1.16510E+06,   1.18294E+06,   1.18294E+06
C:/temp/Job-40.odb,Step-1,Increment      1: Step Time =    1.000,"P-40-1",          1502,       121.472,       32.3552,            0.,NA,NA,"",   1.11948E+06,   1.13187E+06,   1.13187E+06
C:/temp/Job-40.odb,Step-1,Increment      1: Step Time =    1.000,"P-40-1",          1503,       69.1233,       42.0140,            0.,NA,NA,"",   1.25633E+06,   1.23835E+06,   1.23835E+06
C:/temp/Job-40.odb,Step-1,Increment      1: Step Time =    1.000,"P-40-1",          1504,       58.9866,       50.2920,            0.,NA,NA,"",   1.25971E+06,   1.21706E+06,   1.21706E+06
C:/temp/Job-40.odb,Step-1,Increment      1: Step Time =    1.000,"P-40-1",          1505,       132.103,       158.594,            0.,NA,NA,"",   1.22597E+06,   1.20172E+06,   1.20172E+06
C:/temp/Job-40.odb,Step-1,Increment      1: Step Time =    1.000,"P-40-1",          1506,       143.100,       151.351,            0.,NA,NA,"",   1.25913E+06,   1.20081E+06,   1.20081E+06
C:/temp/Job-40.odb,Step-1,Increment      1: Step Time =    1.000,"P-40-1",          1507,       129.131,       143.343,            0.,NA,NA,"",   1.38470E+06,   1.32852E+06,   1.32852E+06
C:/temp/Job-40.odb,Step-1,Increment      1: Step Time =    1.000,"P-40-1",          1508,       34.7175,       72.6819,            0.,NA,NA,"",   830.431E+03,   870.407E+03,   870.407E+03
C:/temp/Job-40.odb,Step-1,Increment      1: Step Time =    1.000,"P-40-1",          1509,       140.380,       141.845,            0.,NA,NA,"",   1.32862E+06,   1.23998E+06,   1.23998E+06
C:/temp/Job-40.odb,Step-1,Increment      1: Step Time =    1.000,"P-40-1",          1510,       132.826,       139.564,            0.,NA,NA,"",   1.40250E+06,   1.31055E+06,   1.31055E+06
C:/temp/Job-40.odb,Step-1,Increment      1: Step Time =    1.000,"P-40-1",          1511,       141.167,       49.9079,            0.,NA,NA,"",   1.27923E+06,   1.21804E+06,   1.21804E+06
C:/temp/Job-40.odb,Step-1,Increment      1: Step Time =    1.000,"P-40-1",          1512,       57.3955,       150.596,            0.,NA,NA,"",   1.24611E+06,   1.20625E+06,   1.20625E+06
C:/temp/Job-40.odb,Step-1,Increment      1: Step Time =    1.000,"P-40-1",          1513,       152.088,       154.758,            0.,NA,NA,"",   1.18895E+06,   1.14413E+06,   1.14413E+06
C:/temp/Job-40.odb,Step-1,Increment      1: Step Time =    1.000,"P-40-1",          1514,       50.8902,       45.3423,            0.,NA,NA,"",   1.20339E+06,   1.17719E+06,   1.17719E+06
C:/temp/Job-40.odb,Step-1,Increment      1: Step Time =    1.000,"P-40-1",          1515,       160.611,       118.205,            0.,NA,NA,"",   932.596E+03,   922.328E+03,   922.328E+03
C:/temp/Job-40.odb,Step-1,Increment      1: Step Time =    1.000,"P-40-1",          1516,       47.1144,       64.2878,            0.,NA,NA,"",   1.06154E+06,   1.03946E+06,   1.03946E+06
C:/temp/Job-40.odb,Step-1,Increment      1: Step Time =    1.000,"P-40-1",          1517,       136.157,       153.537,            0.,NA,NA,"",   1.26612E+06,   1.22210E+06,   1.22210E+06
C:/temp/Job-40.odb,Step-1,Increment      1: Step Time =    1.000,"P-40-1",          1518,       46.5144,       152.171,            0.,NA,NA,"",   1.16499E+06,   1.14739E+06,   1.14739E+06
C:/temp/Job-40.odb,Step-1,Increment      1: Step Time =    1.000,"P-40-1",          1519,       154.678,       44.1188,            0.,NA,NA,"",   1.17164E+06,   1.13209E+06,   1.13209E+06
C:/temp/Job-40.odb,Step-1,Increment      1: Step Time =    1.000,"P-40-1",          1520,       153.574,       137.622,            0.,NA,NA,"",   1.20008E+06,   1.13140E+06,   1.13140E+06
C:/temp/Job-40.odb,Step-1,Increment      1: Step Time =    1.000,"P-40-1",          1521,       128.188,       35.7766,            0.,NA,NA,"",   1.16680E+06,   1.16009E+06,   1.16009E+06
C:/temp/Job-40.odb,Step-1,Increment      1: Step Time =    1.000,"P-40-1",          1522,       72.1004,       159.852,            0.,NA,NA,"",   1.24084E+06,   1.23074E+06,   1.23074E+06
C:/temp/Job-40.odb,Step-1,Increment      1: Step Time =    1.000,"P-40-1",          1523,       33.3197,       76.3008,            0.,NA,NA,"",   777.617E+03,   827.142E+03,   827.142E+03
C:/temp/Job-40.odb,Step-1,Increment      1: Step Time =    1.000,"P-40-1",          1524,       165.213,       118.586,            0.,NA,NA,"",   930.108E+03,   937.810E+03,   937.810E+03
C:/temp/Job-40.odb,Step-1,Increment      1: Step Time =    1.000,"P-40-1",          1525,       49.6202,       156.298,            0.,NA,NA,"",   1.19657E+06,   1.17408E+06,   1.17408E+06
C:/temp/Job-40.odb,Step-1,Increment      1: Step Time =    1.000,"P-40-1",          1526,       47.8161,       54.8312,            0.,NA,NA,"",   1.14810E+06,   1.12388E+06,   1.12388E+06
C:/temp/Job-40.odb,Step-1,Increment      1: Step Time =    1.000,"P-40-1",          1527,       143.557,       139.346,            0.,NA,NA,"",   1.30415E+06,   1.21084E+06,   1.21084E+06
C:/temp/Job-40.odb,Step-1,Increment      1: Step Time =    1.000,"P-40-1",          1528,       165.151,       123.217,            0.,NA,NA,"",   986.952E+03,   982.900E+03,   982.900E+03
C:/temp/Job-40.odb,Step-1,Increment      1: Step Time =    1.000,"P-40-1",          1529,       133.071,       143.446,            0.,NA,NA,"",   1.37551E+06,   1.30174E+06,   1.30174E+06
C:/temp/Job-40.odb,Step-1,Increment      1: Step Time =    1.000,"P-40-1",          1530,       32.8836,       67.8142,            0.,NA,NA,"",   877.178E+03,   916.943E+03,   916.943E+03
C:/temp/Job-40.odb,Step-1,Increment      1: Step Time =    1.000,"P-40-1",          1531,       38.4510,       76.8947,            0.,NA,NA,"",   798.013E+03,   831.959E+03,   831.959E+03
C:/temp/Job-40.odb,Step-1,Increment      1: Step Time =    1.000,"P-40-1",          1532,       134.541,       136.135,            0.,NA,NA,"",   1.40560E+06,   1.29367E+06,   1.29367E+06
C:/temp/Job-40.odb,Step-1,Increment      1: Step Time =    1.000,"P-40-1",          1533,       57.5350,       156.661,            0.,NA,NA,"",   1.23843E+06,   1.20676E+06,   1.20676E+06
C:/temp/Job-40.odb,Step-1,Increment      1: Step Time =    1.000,"P-40-1",          1534,       142.983,       44.1890,            0.,NA,NA,"",   1.22840E+06,   1.18179E+06,   1.18179E+06
C:/temp/Job-40.odb,Step-1,Increment      1: Step Time =    1.000,"P-40-1",          1535,       147.443,       154.268,            0.,NA,NA,"",   1.21702E+06,   1.16735E+06,   1.16735E+06
C:/temp/Job-40.odb,Step-1,Increment      1: Step Time =    1.000,"P-40-1",          1536,       54.7548,       49.6359,            0.,NA,NA,"",   1.22900E+06,   1.19153E+06,   1.19153E+06
C:/temp/Job-40.odb,Step-1,Increment      1: Step Time =    1.000,"P-40-1",          1537,       42.8516,       59.7183,            0.,NA,NA,"",   1.05699E+06,   1.05105E+06,   1.05105E+06
C:/temp/Job-40.odb,Step-1,Increment      1: Step Time =    1.000,"P-40-1",          1538,       152.370,       39.4276,            0.,NA,NA,"",   1.16079E+06,   1.12638E+06,   1.12638E+06
C:/temp/Job-40.odb,Step-1,Increment      1: Step Time =    1.000,"P-40-1",          1539,       156.545,       141.981,            0.,NA,NA,"",   1.17911E+06,   1.12561E+06,   1.12561E+06
C:/temp/Job-40.odb,Step-1,Increment      1: Step Time =    1.000,"P-40-1",          1540,       137.130,       59.5910,            0.,NA,NA,"",   1.36768E+06,   1.27277E+06,   1.27277E+06
C:/temp/Job-40.odb,Step-1,Increment      1: Step Time =    1.000,"P-40-1",          1541,       62.6557,       140.070,            0.,NA,NA,"",   1.29504E+06,   1.22841E+06,   1.22841E+06
C:/temp/Job-40.odb,Step-1,Increment      1: Step Time =    1.000,"P-40-1",          1542,       130.591,       43.9491,            0.,NA,NA,"",   1.24922E+06,   1.22387E+06,   1.22387E+06
C:/temp/Job-40.odb,Step-1,Increment      1: Step Time =    1.000,"P-40-1",          1543,       62.9452,       155.959,            0.,NA,NA,"",   1.26174E+06,   1.22942E+06,   1.22942E+06
C:/temp/Job-40.odb,Step-1,Increment      1: Step Time =    1.000,"P-40-1",          1544,       137.164,       133.211,            0.,NA,NA,"",   1.38023E+06,   1.25320E+06,   1.25320E+06
C:/temp/Job-40.odb,Step-1,Increment      1: Step Time =    1.000,"P-40-1",          1545,       38.0875,       59.4965,            0.,NA,NA,"",   1.01095E+06,   1.02334E+06,   1.02334E+06
C:/temp/Job-40.odb,Step-1,Increment      1: Step Time =    1.000,"P-40-1",          1546,       160.029,       139.236,            0.,NA,NA,"",   1.14476E+06,   1.10032E+06,   1.10032E+06
C:/temp/Job-40.odb,Step-1,Increment      1: Step Time =    1.000,"P-40-1",          1547,       149.777,       140.344,            0.,NA,NA,"",   1.24323E+06,   1.16566E+06,   1.16566E+06
C:/temp/Job-40.odb,Step-1,Increment      1: Step Time =    1.000,"P-40-1",          1548,       157.798,       134.340,            0.,NA,NA,"",   1.14174E+06,   1.08928E+06,   1.08928E+06
C:/temp/Job-40.odb,Step-1,Increment      1: Step Time =    1.000,"P-40-1",          1549,       38.0011,       54.7532,            0.,NA,NA,"",   1.05256E+06,   1.06178E+06,   1.06178E+06
C:/temp/Job-40.odb,Step-1,Increment      1: Step Time =    1.000,"P-40-1",          1550,       150.674,       36.2202,            0.,NA,NA,"",   1.14889E+06,   1.11839E+06,   1.11839E+06
C:/temp/Job-40.odb,Step-1,Increment      1: Step Time =    1.000,"P-40-1",          1551,       48.7410,       163.484,            0.,NA,NA,"",   1.19672E+06,   1.17979E+06,   1.17979E+06
C:/temp/Job-40.odb,Step-1,Increment      1: Step Time =    1.000,"P-40-1",          1552,       149.516,       149.725,            0.,NA,NA,"",   1.22599E+06,   1.16875E+06,   1.16875E+06
C:/temp/Job-40.odb,Step-1,Increment      1: Step Time =    1.000,"P-40-1",          1553,       47.0749,       50.1506,            0.,NA,NA,"",   1.16475E+06,   1.14431E+06,   1.14431E+06
C:/temp/Job-40.odb,Step-1,Increment      1: Step Time =    1.000,"P-40-1",          1554,       156.342,       149.615,            0.,NA,NA,"",   1.17737E+06,   1.13227E+06,   1.13227E+06
C:/temp/Job-40.odb,Step-1,Increment      1: Step Time =    1.000,"P-40-1",          1555,       152.216,       145.220,            0.,NA,NA,"",   1.21959E+06,   1.15758E+06,   1.15758E+06
C:/temp/Job-40.odb,Step-1,Increment      1: Step Time =    1.000,"P-40-1",          1556,       37.2835,       64.9608,            0.,NA,NA,"",   945.914E+03,   966.682E+03,   966.682E+03
C:/temp/Job-40.odb,Step-1,Increment      1: Step Time =    1.000,"P-40-1",          1557,       37.5740,       49.9745,            0.,NA,NA,"",   1.08504E+06,   1.09319E+06,   1.09319E+06
C:/temp/Job-40.odb,Step-1,Increment      1: Step Time =    1.000,"P-40-1",          1558,       144.197,       36.2533,            0.,NA,NA,"",   1.17056E+06,   1.13904E+06,   1.13904E+06
C:/temp/Job-40.odb,Step-1,Increment      1: Step Time =    1.000,"P-40-1",          1559,       56.1248,       163.847,            0.,NA,NA,"",   1.21876E+06,   1.19523E+06,   1.19523E+06
C:/temp/Job-40.odb,Step-1,Increment      1: Step Time =    1.000,"P-40-1",          1560,       134.927,       35.2590,            0.,NA,NA,"",   1.16868E+06,   1.14908E+06,   1.14908E+06
C:/temp/Job-40.odb,Step-1,Increment      1: Step Time =    1.000,"P-40-1",          1561,       66.7630,       163.858,            0.,NA,NA,"",   1.22211E+06,   1.20526E+06,   1.20526E+06
C:/temp/Job-40.odb,Step-1,Increment      1: Step Time =    1.000,"P-40-1",          1562,       33.5087,       54.6857,            0.,NA,NA,"",   1.01330E+06,   1.03836E+06,   1.03836E+06
C:/temp/Job-40.odb,Step-1,Increment      1: Step Time =    1.000,"P-40-1",          1563,       162.434,       136.580,            0.,NA,NA,"",   1.11210E+06,   1.07786E+06,   1.07786E+06
C:/temp/Job-40.odb,Step-1,Increment      1: Step Time =    1.000,"P-40-1",          1564,       151.857,       115.539,            0.,NA,NA,"",   906.743E+03,   862.385E+03,   862.385E+03
C:/temp/Job-40.odb,Step-1,Increment      1: Step Time =    1.000,"P-40-1",          1565,       163.945,       143.192,            0.,NA,NA,"",   1.12178E+06,   1.09177E+06,   1.09177E+06
C:/temp/Job-40.odb,Step-1,Increment      1: Step Time =    1.000,"P-40-1",          1566,       37.0189,       44.7962,            0.,NA,NA,"",   1.11378E+06,   1.12163E+06,   1.12163E+06
C:/temp/Job-40.odb,Step-1,Increment      1: Step Time =    1.000,"P-40-1",          1567,       42.3963,       50.1591,            0.,NA,NA,"",   1.12539E+06,   1.11814E+06,   1.11814E+06
C:/temp/Job-40.odb,Step-1,Increment      1: Step Time =    1.000,"P-40-1",          1568,       138.096,       37.3860,            0.,NA,NA,"",   1.18974E+06,   1.16133E+06,   1.16133E+06
C:/temp/Job-40.odb,Step-1,Increment      1: Step Time =    1.000,"P-40-1",          1569,       132.069,       32.6619,            0.,NA,NA,"",   1.14367E+06,   1.13118E+06,   1.13118E+06
C:/temp/Job-40.odb,Step-1,Increment      1: Step Time =    1.000,"P-40-1",          1570,       62.5119,       162.700,            0.,NA,NA,"",   1.23000E+06,   1.20680E+06,   1.20680E+06
C:/temp/Job-40.odb,Step-1,Increment      1: Step Time =    1.000,"P-40-1",          1571,       71.4891,       164.610,            0.,NA,NA,"",   1.20817E+06,   1.20065E+06,   1.20065E+06
C:/temp/Job-40.odb,Step-1,Increment      1: Step Time =    1.000,"P-40-1",          1572,       158.578,       154.768,            0.,NA,NA,"",   1.15032E+06,   1.11539E+06,   1.11539E+06
C:/temp/Job-40.odb,Step-1,Increment      1: Step Time =    1.000,"P-40-1",          1573,       140.677,       40.0665,            0.,NA,NA,"",   1.20637E+06,   1.16964E+06,   1.16964E+06
C:/temp/Job-40.odb,Step-1,Increment      1: Step Time =    1.000,"P-40-1",          1574,       59.5696,       160.548,            0.,NA,NA,"",   1.23544E+06,   1.20800E+06,   1.20800E+06
C:/temp/Job-40.odb,Step-1,Increment      1: Step Time =    1.000,"P-40-1",          1575,       166.408,       139.881,            0.,NA,NA,"",   1.09202E+06,   1.07198E+06,   1.07198E+06
C:/temp/Job-40.odb,Step-1,Increment      1: Step Time =    1.000,"P-40-1",          1576,       164.009,       150.102,            0.,NA,NA,"",   1.12284E+06,   1.09609E+06,   1.09609E+06
C:/temp/Job-40.odb,Step-1,Increment      1: Step Time =    1.000,"P-40-1",          1577,       159.676,       157.644,            0.,NA,NA,"",   1.13571E+06,   1.10561E+06,   1.10561E+06
C:/temp/Job-40.odb,Step-1,Increment      1: Step Time =    1.000,"P-40-1",          1578,       60.3204,       166.407,            0.,NA,NA,"",   1.21317E+06,   1.19282E+06,   1.19282E+06
C:/temp/Job-40.odb,Step-1,Increment      1: Step Time =    1.000,"P-40-1",          1579,       140.902,       33.7621,            0.,NA,NA,"",   1.15511E+06,   1.13024E+06,   1.13024E+06
C:/temp/Job-40.odb,Step-1,Increment      1: Step Time =    1.000,"P-40-1",          1580,       106.637,       143.926,            0.,NA,NA,"",   1.27328E+06,   1.38324E+06,   1.38324E+06
C:/temp/Job-40.odb,Step-1,Increment      1: Step Time =    1.000,"P-40-1",          1581,       71.6263,       46.5185,            0.,NA,NA,"",   1.28989E+06,   1.27178E+06,   1.27178E+06
C:/temp/Job-40.odb,Step-1,Increment      1: Step Time =    1.000,"P-40-1",          1582,       25.8175,       8.80422,            0.,NA,NA,"",   1.23098E+06,   1.23515E+06,   1.23515E+06
C:/temp/Job-40.odb,Step-1,Increment      1: Step Time =    1.000,"P-40-1",          1583,       9.72631,       174.351,            0.,NA,NA,"",   1.08145E+06,   1.16868E+06,   1.16868E+06
C:/temp/Job-40.odb,Step-1,Increment      1: Step Time =    1.000,"P-40-1",          1584,       190.984,       29.4289,            0.,NA,NA,"",   998.752E+03,   1.00607E+06,   1.00607E+06
C:/temp/Job-40.odb,Step-1,Increment      1: Step Time =    1.000,"P-40-1",          1585,       170.594,       190.945,            0.,NA,NA,"",   1.00887E+06,   1.00801E+06,   1.00801E+06
C:/temp/Job-40.odb,Step-1,Increment      1: Step Time =    1.000,"P-40-1",          1586,       51.7352,       125.131,            0.,NA,NA,"",    962.04E+03,   925.595E+03,   925.595E+03
C:/temp/Job-40.odb,Step-1,Increment      1: Step Time =    1.000,"P-40-1",          1587,       46.0310,       95.5762,            0.,NA,NA,"",   497.972E+03,   549.628E+03,   549.628E+03
C:/temp/Job-40.odb,Step-1,Increment      1: Step Time =    1.000,"P-40-1",          1588,       49.3588,       97.4578,            0.,NA,NA,"",   446.603E+03,   492.556E+03,   492.556E+03
C:/temp/Job-40.odb,Step-1,Increment      1: Step Time =    1.000,"P-40-1",          1589,       155.948,       39.4528,            0.,NA,NA,"",   1.14537E+06,   1.11421E+06,   1.11421E+06
C:/temp/Job-40.odb,Step-1,Increment      1: Step Time =    1.000,"P-40-1",          1590,       45.3980,       159.378,            0.,NA,NA,"",   1.17759E+06,   1.16496E+06,   1.16496E+06
C:/temp/Job-40.odb,Step-1,Increment      1: Step Time =    1.000,"P-40-1",          1591,       153.624,       80.0601,            0.,NA,NA,"",   993.218E+03,   942.579E+03,   942.579E+03
C:/temp/Job-40.odb,Step-1,Increment      1: Step Time =    1.000,"P-40-1",          1592,       111.430,       161.505,            0.,NA,NA,"",   1.11687E+06,   1.16587E+06,   1.16587E+06
C:/temp/Job-40.odb,Step-1,Increment      1: Step Time =    1.000,"P-40-1",          1593,       87.8021,       42.4730,            0.,NA,NA,"",   1.17192E+06,   1.22181E+06,   1.22181E+06
C:/temp/Job-40.odb,Step-1,Increment      1: Step Time =    1.000,"P-40-1",          1594,       37.6646,       112.543,            0.,NA,NA,"",   640.891E+03,   696.702E+03,   696.702E+03
C:/temp/Job-40.odb,Step-1,Increment      1: Step Time =    1.000,"P-40-1",          1595,       53.7334,       153.271,            0.,NA,NA,"",   1.21933E+06,   1.18762E+06,   1.18762E+06
C:/temp/Job-40.odb,Step-1,Increment      1: Step Time =    1.000,"P-40-1",          1596,       148.218,       46.9678,            0.,NA,NA,"",   1.21948E+06,   1.16762E+06,   1.16762E+06
C:/temp/Job-40.odb,Step-1,Increment      1: Step Time =    1.000,"P-40-1",          1597,       186.756,       57.9579,            0.,NA,NA,"",   980.415E+03,   1.01780E+06,   1.01780E+06
C:/temp/Job-40.odb,Step-1,Increment      1: Step Time =    1.000,"P-40-1",          1598,       57.9894,       12.5492,            0.,NA,NA,"",   1.11190E+06,   1.10710E+06,   1.10710E+06
C:/temp/Job-40.odb,Step-1,Increment      1: Step Time =    1.000,"P-40-1",          1599,       142.038,       186.738,            0.,NA,NA,"",   1.01875E+06,   1.01356E+06,   1.01356E+06
C:/temp/Job-40.odb,Step-1,Increment      1: Step Time =    1.000,"P-40-1",          1600,       12.3020,       142.584,            0.,NA,NA,"",   853.870E+03,   938.012E+03,   938.012E+03
C:/temp/Job-40.odb,Step-1,Increment      1: Step Time =    1.000,"P-40-1",          1601,       45.9741,       122.283,            0.,NA,NA,"",   842.243E+03,   845.450E+03,   845.450E+03
C:/temp/Job-40.odb,Step-1,Increment      1: Step Time =    1.000,"P-40-1",          1602,       47.9041,       9.81633,            0.,NA,NA,"",   1.13628E+06,   1.13348E+06,   1.13348E+06
C:/temp/Job-40.odb,Step-1,Increment      1: Step Time =    1.000,"P-40-1",          1603,       189.148,       47.2144,            0.,NA,NA,"",   988.353E+03,   1.01403E+06,   1.01403E+06
C:/temp/Job-40.odb,Step-1,Increment      1: Step Time =    1.000,"P-40-1",          1604,       152.832,       189.042,            0.,NA,NA,"",   1.01437E+06,   1.01043E+06,   1.01043E+06
C:/temp/Job-40.odb,Step-1,Increment      1: Step Time =    1.000,"P-40-1",          1605,       9.60417,       152.006,            0.,NA,NA,"",   905.391E+03,   996.173E+03,   996.173E+03
C:/temp/Job-40.odb,Step-1,Increment      1: Step Time =    1.000,"P-40-1",          1606,       99.3241,       146.017,            0.,NA,NA,"",   1.23533E+06,   1.34967E+06,   1.34967E+06
C:/temp/Job-40.odb,Step-1,Increment      1: Step Time =    1.000,"P-40-1",          1607,       5.11650,       5.06756,            0.,NA,NA,"",   1.49679E+06,   1.55431E+06,   1.55431E+06
C:/temp/Job-40.odb,Step-1,Increment      1: Step Time =    1.000,"P-40-1",          1608,       82.7316,       122.391,            0.,NA,NA,"",   1.41971E+06,   1.41135E+06,   1.41135E+06
C:/temp/Job-40.odb,Step-1,Increment      1: Step Time =    1.000,"P-40-1",          1609,       105.662,       128.144,            0.,NA,NA,"",   2.19066E+06,   2.30039E+06,   2.30039E+06
C:/temp/Job-40.odb,Step-1,Increment      1: Step Time =    1.000,"P-40-1",          1610,       117.936,       122.806,            0.,NA,NA,"",   1.52081E+06,   1.50496E+06,   1.50496E+06
C:/temp/Job-40.odb,Step-1,Increment      1: Step Time =    1.000,"P-40-1",          1611,       132.932,       98.6120,            0.,NA,NA,"",   391.617E+03,  -211.230E+03,  -211.230E+03
C:/temp/Job-40.odb,Step-1,Increment      1: Step Time =    1.000,"P-40-1",          1612,       111.933,       73.4227,            0.,NA,NA,"",   1.93478E+06,   1.99852E+06,   1.99852E+06
C:/temp/Job-40.odb,Step-1,Increment      1: Step Time =    1.000,"P-40-1",          1613,       43.7877,       9.57104,            0.,NA,NA,"",   1.15132E+06,   1.14919E+06,   1.14919E+06
C:/temp/Job-40.odb,Step-1,Increment      1: Step Time =    1.000,"P-40-1",          1614,       10.3390,       26.2929,            0.,NA,NA,"",   1.08007E+06,   1.16548E+06,   1.16548E+06
C:/temp/Job-40.odb,Step-1,Increment      1: Step Time =    1.000,"P-40-1",          1615,       190.148,       15.1778,            0.,NA,NA,"",   1.00159E+06,   1.00297E+06,   1.00297E+06
C:/temp/Job-40.odb,Step-1,Increment      1: Step Time =    1.000,"P-40-1",          1616,       184.822,       190.124,            0.,NA,NA,"",   1.00272E+06,   1.00331E+06,   1.00331E+06
C:/temp/Job-40.odb,Step-1,Increment      1: Step Time =    1.000,"P-40-1",          1617,       115.853,       133.609,            0.,NA,NA,"",   1.53137E+06,   1.57835E+06,   1.57835E+06
C:/temp/Job-40.odb,Step-1,Increment      1: Step Time =    1.000,"P-40-1",          1618,       127.593,       72.8505,            0.,NA,NA,"",   1.46848E+06,   1.32202E+06,   1.32202E+06
C:/temp/Job-40.odb,Step-1,Increment      1: Step Time =    1.000,"P-40-1",          1619,       109.678,       68.6412,            0.,NA,NA,"",   1.66106E+06,   1.78223E+06,   1.78223E+06
C:/temp/Job-40.odb,Step-1,Increment      1: Step Time =    1.000,"P-40-1",          1620,       9.05092,       156.116,            0.,NA,NA,"",   930.361E+03,   1.02313E+06,   1.02313E+06
C:/temp/Job-40.odb,Step-1,Increment      1: Step Time =    1.000,"P-40-1",          1621,       39.7248,       183.526,            0.,NA,NA,"",   1.17962E+06,   1.17770E+06,   1.17770E+06
C:/temp/Job-40.odb,Step-1,Increment      1: Step Time =    1.000,"P-40-1",          1622,       160.616,       16.3526,            0.,NA,NA,"",   1.03314E+06,   1.02732E+06,   1.02732E+06
C:/temp/Job-40.odb,Step-1,Increment      1: Step Time =    1.000,"P-40-1",          1623,       183.805,       160.395,            0.,NA,NA,"",   1.01273E+06,   1.02329E+06,   1.02329E+06
C:/temp/Job-40.odb,Step-1,Increment      1: Step Time =    1.000,"P-40-1",          1624,       110.640,       140.860,            0.,NA,NA,"",   1.36418E+06,   1.46514E+06,   1.46514E+06
C:/temp/Job-40.odb,Step-1,Increment      1: Step Time =    1.000,"P-40-1",          1625,       142.914,       179.386,            0.,NA,NA,"",   1.06338E+06,   1.05244E+06,   1.05244E+06
C:/temp/Job-40.odb,Step-1,Increment      1: Step Time =    1.000,"P-40-1",          1626,       132.415,       185.231,            0.,NA,NA,"",   1.01325E+06,   1.01086E+06,   1.01086E+06
C:/temp/Job-40.odb,Step-1,Increment      1: Step Time =    1.000,"P-40-1",          1627,       50.9140,       186.214,            0.,NA,NA,"",   1.14296E+06,   1.13769E+06,   1.13769E+06
C:/temp/Job-40.odb,Step-1,Increment      1: Step Time =    1.000,"P-40-1",          1628,       56.4118,       19.4284,            0.,NA,NA,"",   1.14946E+06,   1.14018E+06,   1.14018E+06
C:/temp/Job-40.odb,Step-1,Increment      1: Step Time =    1.000,"P-40-1",          1629,       67.3772,       14.5062,            0.,NA,NA,"",   1.08660E+06,   1.08292E+06,   1.08292E+06
C:/temp/Job-40.odb,Step-1,Increment      1: Step Time =    1.000,"P-40-1",          1630,       148.299,       13.6713,            0.,NA,NA,"",   1.02516E+06,   1.01931E+06,   1.01931E+06
C:/temp/Job-40.odb,Step-1,Increment      1: Step Time =    1.000,"P-40-1",          1631,       179.383,       57.0036,            0.,NA,NA,"",   1.01862E+06,   1.03633E+06,   1.03633E+06
C:/temp/Job-40.odb,Step-1,Increment      1: Step Time =    1.000,"P-40-1",          1632,       185.214,       67.5489,            0.,NA,NA,"",   960.780E+03,   1.01079E+06,   1.01079E+06
C:/temp/Job-40.odb,Step-1,Increment      1: Step Time =    1.000,"P-40-1",          1633,       186.484,       148.147,            0.,NA,NA,"",   992.240E+03,   1.01967E+06,   1.01967E+06
C:/temp/Job-40.odb,Step-1,Increment      1: Step Time =    1.000,"P-40-1",          1634,       139.690,       104.311,            0.,NA,NA,"",   457.604E+03,   395.191E+03,   395.191E+03
C:/temp/Job-40.odb,Step-1,Increment      1: Step Time =    1.000,"P-40-1",          1635,       124.709,       67.0579,            0.,NA,NA,"",   1.51463E+06,   1.43484E+06,   1.43484E+06
C:/temp/Job-40.odb,Step-1,Increment      1: Step Time =    1.000,"P-40-1",          1636,       67.1508,       80.0503,            0.,NA,NA,"",   1.07539E+06,   924.122E+03,   924.122E+03
C:/temp/Job-40.odb,Step-1,Increment      1: Step Time =    1.000,"P-40-1",          1637,       89.7714,       59.8569,            0.,NA,NA,"",   1.37742E+06,   1.47007E+06,   1.47007E+06
C:/temp/Job-40.odb,Step-1,Increment      1: Step Time =    1.000,"P-40-1",          1638,       85.2562,       138.013,            0.,NA,NA,"",   1.44556E+06,   1.49621E+06,   1.49621E+06
C:/temp/Job-40.odb,Step-1,Increment      1: Step Time =    1.000,"P-40-1",          1639,       14.3027,       31.7214,            0.,NA,NA,"",   1.06081E+06,   1.13474E+06,   1.13474E+06
C:/temp/Job-40.odb,Step-1,Increment      1: Step Time =    1.000,"P-40-1",          1640,       14.5389,       35.9043,            0.,NA,NA,"",   1.02821E+06,   1.10345E+06,   1.10345E+06
C:/temp/Job-40.odb,Step-1,Increment      1: Step Time =    1.000,"P-40-1",          1641,       116.430,       140.939,            0.,NA,NA,"",   1.38712E+06,   1.43168E+06,   1.43168E+06
C:/temp/Job-40.odb,Step-1,Increment      1: Step Time =    1.000,"P-40-1",          1642,       51.2182,       16.9836,            0.,NA,NA,"",   1.15496E+06,   1.14773E+06,   1.14773E+06
C:/temp/Job-40.odb,Step-1,Increment      1: Step Time =    1.000,"P-40-1",          1643,       157.537,       17.3182,            0.,NA,NA,"",   1.03767E+06,   1.03065E+06,   1.03065E+06
C:/temp/Job-40.odb,Step-1,Increment      1: Step Time =    1.000,"P-40-1",          1644,       182.882,       157.281,            0.,NA,NA,"",   1.01377E+06,   1.02603E+06,   1.02603E+06
C:/temp/Job-40.odb,Step-1,Increment      1: Step Time =    1.000,"P-40-1",          1645,       43.2316,       182.542,            0.,NA,NA,"",   1.17237E+06,   1.16817E+06,   1.16817E+06
C:/temp/Job-40.odb,Step-1,Increment      1: Step Time =    1.000,"P-40-1",          1646,       19.2713,       22.0046,            0.,NA,NA,"",   1.17371E+06,   1.21752E+06,   1.21752E+06
C:/temp/Job-40.odb,Step-1,Increment      1: Step Time =    1.000,"P-40-1",          1647,       115.203,       61.5274,            0.,NA,NA,"",   1.43090E+06,   1.48256E+06,   1.48256E+06
C:/temp/Job-40.odb,Step-1,Increment      1: Step Time =    1.000,"P-40-1",          1648,       180.595,       51.2563,            0.,NA,NA,"",   1.02086E+06,   1.03542E+06,   1.03542E+06
C:/temp/Job-40.odb,Step-1,Increment      1: Step Time =    1.000,"P-40-1",          1649,       148.765,       180.352,            0.,NA,NA,"",   1.05666E+06,   1.04598E+06,   1.04598E+06
C:/temp/Job-40.odb,Step-1,Increment      1: Step Time =    1.000,"P-40-1",          1650,       156.504,       20.7953,            0.,NA,NA,"",   1.05392E+06,   1.04386E+06,   1.04386E+06
C:/temp/Job-40.odb,Step-1,Increment      1: Step Time =    1.000,"P-40-1",          1651,       179.477,       156.159,            0.,NA,NA,"",   1.02826E+06,   1.03600E+06,   1.03600E+06
C:/temp/Job-40.odb,Step-1,Increment      1: Step Time =    1.000,"P-40-1",          1652,       139.925,       117.164,            0.,NA,NA,"",   1.05553E+06,   903.475E+03,   903.475E+03
C:/temp/Job-40.odb,Step-1,Increment      1: Step Time =    1.000,"P-40-1",          1653,       62.5696,       80.3707,            0.,NA,NA,"",   988.882E+03,   871.707E+03,   871.707E+03
C:/temp/Job-40.odb,Step-1,Increment      1: Step Time =    1.000,"P-40-1",          1654,       96.3044,       148.814,            0.,NA,NA,"",   1.20263E+06,   1.30440E+06,   1.30440E+06
C:/temp/Job-40.odb,Step-1,Increment      1: Step Time =    1.000,"P-40-1",          1655,       44.4398,       178.850,            0.,NA,NA,"",   1.17802E+06,   1.17177E+06,   1.17177E+06
C:/temp/Job-40.odb,Step-1,Increment      1: Step Time =    1.000,"P-40-1",          1656,       182.141,       40.0707,            0.,NA,NA,"",   1.01872E+06,   1.02754E+06,   1.02754E+06
C:/temp/Job-40.odb,Step-1,Increment      1: Step Time =    1.000,"P-40-1",          1657,       86.0495,       55.9263,            0.,NA,NA,"",   1.32762E+06,   1.38699E+06,   1.38699E+06
C:/temp/Job-40.odb,Step-1,Increment      1: Step Time =    1.000,"P-40-1",          1658,       54.8189,       105.606,            0.,NA,NA,"",   440.211E+03,   460.104E+03,   460.104E+03
C:/temp/Job-40.odb,Step-1,Increment      1: Step Time =    1.000,"P-40-1",          1659,       20.0260,       39.5315,            0.,NA,NA,"",   1.03738E+06,   1.09569E+06,   1.09569E+06
C:/temp/Job-40.odb,Step-1,Increment      1: Step Time =    1.000,"P-40-1",          1660,       13.0042,       57.4191,            0.,NA,NA,"",   856.876E+03,   940.192E+03,   940.192E+03
C:/temp/Job-40.odb,Step-1,Increment      1: Step Time =    1.000,"P-40-1",          1661,       12.9564,       65.9995,            0.,NA,NA,"",   791.523E+03,   875.108E+03,   875.108E+03
C:/temp/Job-40.odb,Step-1,Increment      1: Step Time =    1.000,"P-40-1",          1662,       16.7423,       141.033,            0.,NA,NA,"",   862.565E+03,   937.701E+03,   937.701E+03
C:/temp/Job-40.odb,Step-1,Increment      1: Step Time =    1.000,"P-40-1",          1663,       19.1115,       144.429,            0.,NA,NA,"",   903.549E+03,   972.561E+03,   972.561E+03
C:/temp/Job-40.odb,Step-1,Increment      1: Step Time =    1.000,"P-40-1",          1664,       160.104,       181.965,            0.,NA,NA,"",   1.03892E+06,   1.03206E+06,   1.03206E+06
C:/temp/Job-40.odb,Step-1,Increment      1: Step Time =    1.000,"P-40-1",          1665,       81.2715,       141.973,            0.,NA,NA,"",   1.38788E+06,   1.40309E+06,   1.40309E+06
C:/temp/Job-40.odb,Step-1,Increment      1: Step Time =    1.000,"P-40-1",          1666,       146.021,       86.5786,            0.,NA,NA,"",   856.655E+03,   781.897E+03,   781.897E+03
C:/temp/Job-40.odb,Step-1,Increment      1: Step Time =    1.000,"P-40-1",          1667,       119.288,       62.0792,            0.,NA,NA,"",   1.44783E+06,   1.45476E+06,   1.45476E+06
C:/temp/Job-40.odb,Step-1,Increment      1: Step Time =    1.000,"P-40-1",          1668,       13.8862,       150.427,            0.,NA,NA,"",   920.994E+03,   1.00204E+06,   1.00204E+06
C:/temp/Job-40.odb,Step-1,Increment      1: Step Time =    1.000,"P-40-1",          1669,       17.4682,       179.732,            0.,NA,NA,"",   1.19246E+06,   1.23922E+06,   1.23922E+06
C:/temp/Job-40.odb,Step-1,Increment      1: Step Time =    1.000,"P-40-1",          1670,       118.449,       59.7874,            0.,NA,NA,"",   1.41380E+06,   1.43053E+06,   1.43053E+06
C:/temp/Job-40.odb,Step-1,Increment      1: Step Time =    1.000,"P-40-1",          1671,       22.9201,       15.6617,            0.,NA,NA,"",   1.22507E+06,   1.24312E+06,   1.24312E+06
C:/temp/Job-40.odb,Step-1,Increment      1: Step Time =    1.000,"P-40-1",          1672,       148.976,       175.436,            0.,NA,NA,"",   1.08517E+06,   1.06945E+06,   1.06945E+06
C:/temp/Job-40.odb,Step-1,Increment      1: Step Time =    1.000,"P-40-1",          1673,       175.833,       50.9254,            0.,NA,NA,"",   1.04743E+06,   1.05035E+06,   1.05035E+06
C:/temp/Job-40.odb,Step-1,Increment      1: Step Time =    1.000,"P-40-1",          1674,       19.6595,       26.7119,            0.,NA,NA,"",   1.13341E+06,   1.18297E+06,   1.18297E+06
C:/temp/Job-40.odb,Step-1,Increment      1: Step Time =    1.000,"P-40-1",          1675,       182.690,       25.2341,            0.,NA,NA,"",   1.01257E+06,   1.01553E+06,   1.01553E+06
C:/temp/Job-40.odb,Step-1,Increment      1: Step Time =    1.000,"P-40-1",          1676,       174.818,       182.558,            0.,NA,NA,"",   1.01845E+06,   1.01731E+06,   1.01731E+06
C:/temp/Job-40.odb,Step-1,Increment      1: Step Time =    1.000,"P-40-1",          1677,       130.430,       133.387,            0.,NA,NA,"",   1.45818E+06,   1.33852E+06,   1.33852E+06
C:/temp/Job-40.odb,Step-1,Increment      1: Step Time =    1.000,"P-40-1",          1678,       144.553,       67.4125,            0.,NA,NA,"",   1.27726E+06,   1.16473E+06,   1.16473E+06
C:/temp/Job-40.odb,Step-1,Increment      1: Step Time =    1.000,"P-40-1",          1679,       13.5190,       153.054,            0.,NA,NA,"",   934.639E+03,   1.01612E+06,   1.01612E+06
C:/temp/Job-40.odb,Step-1,Increment      1: Step Time =    1.000,"P-40-1",          1680,       58.4259,       75.9496,            0.,NA,NA,"",   1.04641E+06,   962.352E+03,   962.352E+03
C:/temp/Job-40.odb,Step-1,Increment      1: Step Time =    1.000,"P-40-1",          1681,       153.169,       92.9846,            0.,NA,NA,"",   706.342E+03,   710.495E+03,   710.495E+03
C:/temp/Job-40.odb,Step-1,Increment      1: Step Time =    1.000,"P-40-1",          1682,       128.072,       181.265,            0.,NA,NA,"",   1.03179E+06,   1.03153E+06,   1.03153E+06
C:/temp/Job-40.odb,Step-1,Increment      1: Step Time =    1.000,"P-40-1",          1683,       71.5622,       18.6178,            0.,NA,NA,"",   1.09649E+06,   1.09388E+06,   1.09388E+06
C:/temp/Job-40.odb,Step-1,Increment      1: Step Time =    1.000,"P-40-1",          1684,       181.213,       71.8474,            0.,NA,NA,"",   960.815E+03,   1.00598E+06,   1.00598E+06
C:/temp/Job-40.odb,Step-1,Increment      1: Step Time =    1.000,"P-40-1",          1685,       153.319,       19.3740,            0.,NA,NA,"",   1.05101E+06,   1.04126E+06,   1.04126E+06
C:/temp/Job-40.odb,Step-1,Increment      1: Step Time =    1.000,"P-40-1",          1686,       180.874,       153.028,            0.,NA,NA,"",   1.02125E+06,   1.03363E+06,   1.03363E+06
C:/temp/Job-40.odb,Step-1,Increment      1: Step Time =    1.000,"P-40-1",          1687,       49.5581,       180.836,            0.,NA,NA,"",   1.16404E+06,   1.15619E+06,   1.15619E+06
C:/temp/Job-40.odb,Step-1,Increment      1: Step Time =    1.000,"P-40-1",          1688,       17.3496,       54.8393,            0.,NA,NA,"",   902.703E+03,   975.010E+03,   975.010E+03
C:/temp/Job-40.odb,Step-1,Increment      1: Step Time =    1.000,"P-40-1",          1689,       24.2178,       51.1115,            0.,NA,NA,"",   972.989E+03,   1.02568E+06,   1.02568E+06
C:/temp/Job-40.odb,Step-1,Increment      1: Step Time =    1.000,"P-40-1",          1690,       16.9370,       62.0075,            0.,NA,NA,"",   840.968E+03,   916.772E+03,   916.772E+03
C:/temp/Job-40.odb,Step-1,Increment      1: Step Time =    1.000,"P-40-1",          1691,       66.0953,       124.850,            0.,NA,NA,"",   1.21714E+06,   1.08695E+06,   1.08695E+06
C:/temp/Job-40.odb,Step-1,Increment      1: Step Time =    1.000,"P-40-1",          1692,       37.4634,       18.7365,            0.,NA,NA,"",   1.18666E+06,   1.18683E+06,   1.18683E+06
C:/temp/Job-40.odb,Step-1,Increment      1: Step Time =    1.000,"P-40-1",          1693,       29.8373,       16.5033,            0.,NA,NA,"",   1.20540E+06,   1.21337E+06,   1.21337E+06
C:/temp/Job-40.odb,Step-1,Increment      1: Step Time =    1.000,"P-40-1",          1694,       87.3966,       53.2385,            0.,NA,NA,"",   1.27578E+06,   1.34118E+06,   1.34118E+06
C:/temp/Job-40.odb,Step-1,Increment      1: Step Time =    1.000,"P-40-1",          1695,       96.0771,       46.3712,            0.,NA,NA,"",   1.15411E+06,   1.23921E+06,   1.23921E+06
C:/temp/Job-40.odb,Step-1,Increment      1: Step Time =    1.000,"P-40-1",          1696,       106.817,       147.527,            0.,NA,NA,"",   1.22032E+06,   1.32081E+06,   1.32081E+06
C:/temp/Job-40.odb,Step-1,Increment      1: Step Time =    1.000,"P-40-1",          1697,       99.2100,       151.530,            0.,NA,NA,"",   1.16464E+06,   1.26023E+06,   1.26023E+06
C:/temp/Job-40.odb,Step-1,Increment      1: Step Time =    1.000,"P-40-1",          1698,       97.3489,       154.707,            0.,NA,NA,"",   1.14257E+06,   1.22967E+06,   1.22967E+06
C:/temp/Job-40.odb,Step-1,Increment      1: Step Time =    1.000,"P-40-1",          1699,       20.0613,       139.552,            0.,NA,NA,"",   867.945E+03,   936.901E+03,   936.901E+03
C:/temp/Job-40.odb,Step-1,Increment      1: Step Time =    1.000,"P-40-1",          1700,       178.364,       41.7691,            0.,NA,NA,"",   1.03798E+06,   1.04101E+06,   1.04101E+06
C:/temp/Job-40.odb,Step-1,Increment      1: Step Time =    1.000,"P-40-1",          1701,       158.472,       178.128,            0.,NA,NA,"",   1.05840E+06,   1.04770E+06,   1.04770E+06
C:/temp/Job-40.odb,Step-1,Increment      1: Step Time =    1.000,"P-40-1",          1702,       53.6343,       114.788,            0.,NA,NA,"",   729.232E+03,   708.426E+03,   708.426E+03
C:/temp/Job-40.odb,Step-1,Increment      1: Step Time =    1.000,"P-40-1",          1703,       90.4083,       156.344,            0.,NA,NA,"",   1.16661E+06,   1.22851E+06,   1.22851E+06
C:/temp/Job-40.odb,Step-1,Increment      1: Step Time =    1.000,"P-40-1",          1704,       146.535,       80.0972,            0.,NA,NA,"",   1.04722E+06,   947.544E+03,   947.544E+03
C:/temp/Job-40.odb,Step-1,Increment      1: Step Time =    1.000,"P-40-1",          1705,       61.4709,       71.8685,            0.,NA,NA,"",   1.19039E+06,   1.09090E+06,   1.09090E+06
C:/temp/Job-40.odb,Step-1,Increment      1: Step Time =    1.000,"P-40-1",          1706,       77.1655,       147.273,            0.,NA,NA,"",   1.33747E+06,   1.33175E+06,   1.33175E+06
C:/temp/Job-40.odb,Step-1,Increment      1: Step Time =    1.000,"P-40-1",          1707,       22.6002,       86.7702,            0.,NA,NA,"",   648.979E+03,   727.181E+03,   727.181E+03
C:/temp/Job-40.odb,Step-1,Increment      1: Step Time =    1.000,"P-40-1",          1708,       25.2453,       22.8578,            0.,NA,NA,"",   1.18038E+06,   1.20589E+06,   1.20589E+06
C:/temp/Job-40.odb,Step-1,Increment      1: Step Time =    1.000,"P-40-1",          1709,       55.2039,       119.092,            0.,NA,NA,"",   866.213E+03,   818.250E+03,   818.250E+03
C:/temp/Job-40.odb,Step-1,Increment      1: Step Time =    1.000,"P-40-1",          1710,       143.115,       122.216,            0.,NA,NA,"",   1.14634E+06,   1.01464E+06,   1.01464E+06
C:/temp/Job-40.odb,Step-1,Increment      1: Step Time =    1.000,"P-40-1",          1711,       142.456,       124.682,            0.,NA,NA,"",   1.20690E+06,   1.06921E+06,   1.06921E+06
C:/temp/Job-40.odb,Step-1,Increment      1: Step Time =    1.000,"P-40-1",          1712,       153.539,       110.650,            0.,NA,NA,"",   779.939E+03,   771.863E+03,   771.863E+03
C:/temp/Job-40.odb,Step-1,Increment      1: Step Time =    1.000,"P-40-1",          1713,       21.4099,       28.9374,            0.,NA,NA,"",   1.12479E+06,   1.17067E+06,   1.17067E+06
C:/temp/Job-40.odb,Step-1,Increment      1: Step Time =    1.000,"P-40-1",          1714,       45.0386,       32.1376,            0.,NA,NA,"",   1.18647E+06,   1.17652E+06,   1.17652E+06
C:/temp/Job-40.odb,Step-1,Increment      1: Step Time =    1.000,"P-40-1",          1715,       87.3674,       48.1034,            0.,NA,NA,"",   1.22227E+06,   1.27910E+06,   1.27910E+06
C:/temp/Job-40.odb,Step-1,Increment      1: Step Time =    1.000,"P-40-1",          1716,       93.3438,       43.1283,            0.,NA,NA,"",   1.14388E+06,   1.21233E+06,   1.21233E+06
C:/temp/Job-40.odb,Step-1,Increment      1: Step Time =    1.000,"P-40-1",          1717,       96.1561,       40.5842,            0.,NA,NA,"",   1.11356E+06,   1.18115E+06,   1.18115E+06
C:/temp/Job-40.odb,Step-1,Increment      1: Step Time =    1.000,"P-40-1",          1718,       66.7545,       65.3543,            0.,NA,NA,"",   1.33279E+06,   1.24743E+06,   1.24743E+06
C:/temp/Job-40.odb,Step-1,Increment      1: Step Time =    1.000,"P-40-1",          1719,       24.0841,       136.314,            0.,NA,NA,"",   862.630E+03,   923.260E+03,   923.260E+03
C:/temp/Job-40.odb,Step-1,Increment      1: Step Time =    1.000,"P-40-1",          1720,       21.0730,       55.1654,            0.,NA,NA,"",   920.912E+03,   983.973E+03,   983.973E+03
C:/temp/Job-40.odb,Step-1,Increment      1: Step Time =    1.000,"P-40-1",          1721,       173.696,       40.5795,            0.,NA,NA,"",   1.05796E+06,   1.05338E+06,   1.05338E+06
C:/temp/Job-40.odb,Step-1,Increment      1: Step Time =    1.000,"P-40-1",          1722,       159.908,       173.816,            0.,NA,NA,"",   1.07404E+06,   1.06031E+06,   1.06031E+06
C:/temp/Job-40.odb,Step-1,Increment      1: Step Time =    1.000,"P-40-1",          1723,       54.9845,       71.5109,            0.,NA,NA,"",   1.08046E+06,   1.01702E+06,   1.01702E+06
C:/temp/Job-40.odb,Step-1,Increment      1: Step Time =    1.000,"P-40-1",          1724,       21.1594,       65.8997,            0.,NA,NA,"",   826.913E+03,   895.540E+03,   895.540E+03
C:/temp/Job-40.odb,Step-1,Increment      1: Step Time =    1.000,"P-40-1",          1725,       21.7145,       69.6141,            0.,NA,NA,"",   795.018E+03,   864.699E+03,   864.699E+03
C:/temp/Job-40.odb,Step-1,Increment      1: Step Time =    1.000,"P-40-1",          1726,       23.7776,       82.2429,            0.,NA,NA,"",   684.980E+03,   759.832E+03,   759.832E+03
C:/temp/Job-40.odb,Step-1,Increment      1: Step Time =    1.000,"P-40-1",          1727,       68.3884,       141.534,            0.,NA,NA,"",   1.34645E+06,   1.28628E+06,   1.28628E+06
C:/temp/Job-40.odb,Step-1,Increment      1: Step Time =    1.000,"P-40-1",          1728,       16.8624,       156.238,            0.,NA,NA,"",   980.825E+03,   1.05172E+06,   1.05172E+06
C:/temp/Job-40.odb,Step-1,Increment      1: Step Time =    1.000,"P-40-1",          1729,       124.118,       154.359,            0.,NA,NA,"",   1.24741E+06,   1.24589E+06,   1.24589E+06
C:/temp/Job-40.odb,Step-1,Increment      1: Step Time =    1.000,"P-40-1",          1730,       122.212,       157.581,            0.,NA,NA,"",   1.20857E+06,   1.22001E+06,   1.22001E+06
C:/temp/Job-40.odb,Step-1,Increment      1: Step Time =    1.000,"P-40-1",          1731,       32.4817,       19.9880,            0.,NA,NA,"",   1.19179E+06,   1.19910E+06,   1.19910E+06
C:/temp/Job-40.odb,Step-1,Increment      1: Step Time =    1.000,"P-40-1",          1732,       25.9785,       18.6484,            0.,NA,NA,"",   1.20333E+06,   1.22090E+06,   1.22090E+06
C:/temp/Job-40.odb,Step-1,Increment      1: Step Time =    1.000,"P-40-1",          1733,       85.7552,       160.605,            0.,NA,NA,"",   1.16535E+06,   1.20332E+06,   1.20332E+06
C:/temp/Job-40.odb,Step-1,Increment      1: Step Time =    1.000,"P-40-1",          1734,       38.8874,       106.986,            0.,NA,NA,"",   573.852E+03,   635.272E+03,   635.272E+03
C:/temp/Job-40.odb,Step-1,Increment      1: Step Time =    1.000,"P-40-1",          1735,       82.3878,       41.6657,            0.,NA,NA,"",   1.20124E+06,   1.22899E+06,   1.22899E+06
C:/temp/Job-40.odb,Step-1,Increment      1: Step Time =    1.000,"P-40-1",          1736,       139.149,       54.9160,            0.,NA,NA,"",   1.32675E+06,   1.24950E+06,   1.24950E+06
C:/temp/Job-40.odb,Step-1,Increment      1: Step Time =    1.000,"P-40-1",          1737,       28.6941,       37.6570,            0.,NA,NA,"",   1.10321E+06,   1.13244E+06,   1.13244E+06
C:/temp/Job-40.odb,Step-1,Increment      1: Step Time =    1.000,"P-40-1",          1738,       32.9097,       50.2289,            0.,NA,NA,"",   1.04540E+06,   1.06936E+06,   1.06936E+06
C:/temp/Job-40.odb,Step-1,Increment      1: Step Time =    1.000,"P-40-1",          1739,       176.443,       143.741,            0.,NA,NA,"",   1.03765E+06,   1.04618E+06,   1.04618E+06
C:/temp/Job-40.odb,Step-1,Increment      1: Step Time =    1.000,"P-40-1",          1740,       56.1999,       175.684,            0.,NA,NA,"",   1.17250E+06,   1.15971E+06,   1.15971E+06
C:/temp/Job-40.odb,Step-1,Increment      1: Step Time =    1.000,"P-40-1",          1741,       144.220,       23.8664,            0.,NA,NA,"",   1.08412E+06,   1.06965E+06,   1.06965E+06
C:/temp/Job-40.odb,Step-1,Increment      1: Step Time =    1.000,"P-40-1",          1742,       144.478,       126.682,            0.,NA,NA,"",   1.22162E+06,   1.09419E+06,   1.09419E+06
C:/temp/Job-40.odb,Step-1,Increment      1: Step Time =    1.000,"P-40-1",          1743,       155.395,       114.432,            0.,NA,NA,"",   867.508E+03,   847.793E+03,   847.793E+03
C:/temp/Job-40.odb,Step-1,Increment      1: Step Time =    1.000,"P-40-1",          1744,       156.805,       110.381,            0.,NA,NA,"",   788.429E+03,   793.533E+03,   793.533E+03
C:/temp/Job-40.odb,Step-1,Increment      1: Step Time =    1.000,"P-40-1",          1745,       65.6102,       177.605,            0.,NA,NA,"",   1.14204E+06,   1.13335E+06,   1.13335E+06
C:/temp/Job-40.odb,Step-1,Increment      1: Step Time =    1.000,"P-40-1",          1746,       67.9722,       46.6673,            0.,NA,NA,"",   1.28987E+06,   1.26077E+06,   1.26077E+06
C:/temp/Job-40.odb,Step-1,Increment      1: Step Time =    1.000,"P-40-1",          1747,       22.4655,       128.938,            0.,NA,NA,"",   786.488E+03,   856.021E+03,   856.021E+03
C:/temp/Job-40.odb,Step-1,Increment      1: Step Time =    1.000,"P-40-1",          1748,       176.790,       134.073,            0.,NA,NA,"",   1.00741E+06,   1.02769E+06,   1.02769E+06
C:/temp/Job-40.odb,Step-1,Increment      1: Step Time =    1.000,"P-40-1",          1749,       134.570,       23.6486,            0.,NA,NA,"",   1.08089E+06,   1.07196E+06,   1.07196E+06
C:/temp/Job-40.odb,Step-1,Increment      1: Step Time =    1.000,"P-40-1",          1750,       34.0101,       85.0097,            0.,NA,NA,"",   668.182E+03,   729.336E+03,   729.336E+03
C:/temp/Job-40.odb,Step-1,Increment      1: Step Time =    1.000,"P-40-1",          1751,       31.0740,       24.2082,            0.,NA,NA,"",   1.17946E+06,   1.19241E+06,   1.19241E+06
C:/temp/Job-40.odb,Step-1,Increment      1: Step Time =    1.000,"P-40-1",          1752,       93.4569,       37.2950,            0.,NA,NA,"",   1.10930E+06,   1.16401E+06,   1.16401E+06
C:/temp/Job-40.odb,Step-1,Increment      1: Step Time =    1.000,"P-40-1",          1753,       51.4047,       74.6929,            0.,NA,NA,"",   960.217E+03,   924.546E+03,   924.546E+03
C:/temp/Job-40.odb,Step-1,Increment      1: Step Time =    1.000,"P-40-1",          1754,       28.5465,       82.7161,            0.,NA,NA,"",   685.038E+03,   752.934E+03,   752.934E+03
C:/temp/Job-40.odb,Step-1,Increment      1: Step Time =    1.000,"P-40-1",          1755,       25.2997,       58.9084,            0.,NA,NA,"",   916.397E+03,   970.033E+03,   970.033E+03
C:/temp/Job-40.odb,Step-1,Increment      1: Step Time =    1.000,"P-40-1",          1756,       24.9325,       69.4166,            0.,NA,NA,"",   811.620E+03,   874.319E+03,   874.319E+03
C:/temp/Job-40.odb,Step-1,Increment      1: Step Time =    1.000,"P-40-1",          1757,       160.222,       78.0674,            0.,NA,NA,"",   992.135E+03,   968.330E+03,   968.330E+03
C:/temp/Job-40.odb,Step-1,Increment      1: Step Time =    1.000,"P-40-1",          1758,       63.4972,       50.8188,            0.,NA,NA,"",   1.29150E+06,   1.24697E+06,   1.24697E+06
C:/temp/Job-40.odb,Step-1,Increment      1: Step Time =    1.000,"P-40-1",          1759,       30.6204,       154.980,            0.,NA,NA,"",   1.06737E+06,   1.09571E+06,   1.09571E+06
C:/temp/Job-40.odb,Step-1,Increment      1: Step Time =    1.000,"P-40-1",          1760,       144.254,       159.746,            0.,NA,NA,"",   1.19989E+06,   1.15986E+06,   1.15986E+06
C:/temp/Job-40.odb,Step-1,Increment      1: Step Time =    1.000,"P-40-1",          1761,       127.780,       157.395,            0.,NA,NA,"",   1.23010E+06,   1.21682E+06,   1.21682E+06
C:/temp/Job-40.odb,Step-1,Increment      1: Step Time =    1.000,"P-40-1",          1762,       125.058,       159.690,            0.,NA,NA,"",   1.20021E+06,   1.20074E+06,   1.20074E+06
C:/temp/Job-40.odb,Step-1,Increment      1: Step Time =    1.000,"P-40-1",          1763,       136.018,       140.558,            0.,NA,NA,"",   1.37546E+06,   1.28035E+06,   1.28035E+06
C:/temp/Job-40.odb,Step-1,Increment      1: Step Time =    1.000,"P-40-1",          1764,       136.973,       143.548,            0.,NA,NA,"",   1.35254E+06,   1.26912E+06,   1.26912E+06
C:/temp/Job-40.odb,Step-1,Increment      1: Step Time =    1.000,"P-40-1",          1765,       138.471,       148.264,            0.,NA,NA,"",   1.30776E+06,   1.24184E+06,   1.24184E+06
C:/temp/Job-40.odb,Step-1,Increment      1: Step Time =    1.000,"P-40-1",          1766,       153.868,       118.300,            0.,NA,NA,"",   959.041E+03,   915.520E+03,   915.520E+03
C:/temp/Job-40.odb,Step-1,Increment      1: Step Time =    1.000,"P-40-1",          1767,       77.2576,       39.6639,            0.,NA,NA,"",   1.21422E+06,   1.22149E+06,   1.22149E+06
C:/temp/Job-40.odb,Step-1,Increment      1: Step Time =    1.000,"P-40-1",          1768,       154.418,       58.1226,            0.,NA,NA,"",   1.19989E+06,   1.13878E+06,   1.13878E+06
C:/temp/Job-40.odb,Step-1,Increment      1: Step Time =    1.000,"P-40-1",          1769,       73.4101,       28.0531,            0.,NA,NA,"",   1.14898E+06,   1.14823E+06,   1.14823E+06
C:/temp/Job-40.odb,Step-1,Increment      1: Step Time =    1.000,"P-40-1",          1770,       54.9408,       40.7184,            0.,NA,NA,"",   1.22432E+06,   1.19721E+06,   1.19721E+06
C:/temp/Job-40.odb,Step-1,Increment      1: Step Time =    1.000,"P-40-1",          1771,       158.274,       54.0224,            0.,NA,NA,"",   1.16838E+06,   1.12333E+06,   1.12333E+06
C:/temp/Job-40.odb,Step-1,Increment      1: Step Time =    1.000,"P-40-1",          1772,       101.990,       27.5688,            0.,NA,NA,"",   1.03994E+06,   1.07790E+06,   1.07790E+06
C:/temp/Job-40.odb,Step-1,Increment      1: Step Time =    1.000,"P-40-1",          1773,       123.323,       162.050,            0.,NA,NA,"",   1.17148E+06,   1.18073E+06,   1.18073E+06
C:/temp/Job-40.odb,Step-1,Increment      1: Step Time =    1.000,"P-40-1",          1774,       31.1539,       32.6761,            0.,NA,NA,"",   1.14166E+06,   1.16074E+06,   1.16074E+06
C:/temp/Job-40.odb,Step-1,Increment      1: Step Time =    1.000,"P-40-1",          1775,       112.085,       166.384,            0.,NA,NA,"",   1.08770E+06,   1.12600E+06,   1.12600E+06
C:/temp/Job-40.odb,Step-1,Increment      1: Step Time =    1.000,"P-40-1",          1776,       171.140,       74.6817,            0.,NA,NA,"",   980.239E+03,   995.159E+03,   995.159E+03
C:/temp/Job-40.odb,Step-1,Increment      1: Step Time =    1.000,"P-40-1",          1777,       165.982,       154.414,            0.,NA,NA,"",   1.10205E+06,   1.08305E+06,   1.08305E+06
C:/temp/Job-40.odb,Step-1,Increment      1: Step Time =    1.000,"P-40-1",          1778,       124.843,       171.285,            0.,NA,NA,"",   1.09876E+06,   1.10372E+06,   1.10372E+06
C:/temp/Job-40.odb,Step-1,Increment      1: Step Time =    1.000,"P-40-1",          1779,       96.1926,       168.823,            0.,NA,NA,"",   1.06682E+06,   1.11216E+06,   1.11216E+06
C:/temp/Job-40.odb,Step-1,Increment      1: Step Time =    1.000,"P-40-1",          1780,       64.3896,       143.656,            0.,NA,NA,"",   1.30824E+06,   1.25210E+06,   1.25210E+06
C:/temp/Job-40.odb,Step-1,Increment      1: Step Time =    1.000,"P-40-1",          1781,       51.1927,       67.7052,            0.,NA,NA,"",   1.07913E+06,   1.03698E+06,   1.03698E+06
C:/temp/Job-40.odb,Step-1,Increment      1: Step Time =    1.000,"P-40-1",          1782,       83.3721,       36.1894,            0.,NA,NA,"",   1.15463E+06,   1.18088E+06,   1.18088E+06
C:/temp/Job-40.odb,Step-1,Increment      1: Step Time =    1.000,"P-40-1",          1783,       47.0618,       126.097,            0.,NA,NA,"",   926.009E+03,   915.198E+03,   915.198E+03
C:/temp/Job-40.odb,Step-1,Increment      1: Step Time =    1.000,"P-40-1",          1784,       28.8890,       69.2531,            0.,NA,NA,"",   835.536E+03,   888.809E+03,   888.809E+03
C:/temp/Job-40.odb,Step-1,Increment      1: Step Time =    1.000,"P-40-1",          1785,       172.122,       36.4091,            0.,NA,NA,"",   1.05809E+06,   1.05192E+06,   1.05192E+06
C:/temp/Job-40.odb,Step-1,Increment      1: Step Time =    1.000,"P-40-1",          1786,       48.8185,       74.0268,            0.,NA,NA,"",   939.293E+03,   918.097E+03,   918.097E+03
C:/temp/Job-40.odb,Step-1,Increment      1: Step Time =    1.000,"P-40-1",          1787,       163.619,       170.956,            0.,NA,NA,"",   1.07203E+06,   1.05934E+06,   1.05934E+06
C:/temp/Job-40.odb,Step-1,Increment      1: Step Time =    1.000,"P-40-1",          1788,       132.606,       155.286,            0.,NA,NA,"",   1.25346E+06,   1.22199E+06,   1.22199E+06
C:/temp/Job-40.odb,Step-1,Increment      1: Step Time =    1.000,"P-40-1",          1789,       22.2053,       164.343,            0.,NA,NA,"",   1.07821E+06,   1.12694E+06,   1.12694E+06
C:/temp/Job-40.odb,Step-1,Increment      1: Step Time =    1.000,"P-40-1",          1790,       27.5503,       25.9987,            0.,NA,NA,"",   1.16507E+06,   1.18819E+06,   1.18819E+06
C:/temp/Job-40.odb,Step-1,Increment      1: Step Time =    1.000,"P-40-1",          1791,       54.5287,       63.4929,            0.,NA,NA,"",   1.17090E+06,   1.11608E+06,   1.11608E+06
C:/temp/Job-40.odb,Step-1,Increment      1: Step Time =    1.000,"P-40-1",          1792,       30.7801,       85.7988,            0.,NA,NA,"",   659.259E+03,   726.595E+03,   726.595E+03
C:/temp/Job-40.odb,Step-1,Increment      1: Step Time =    1.000,"P-40-1",          1793,       172.794,       133.992,            0.,NA,NA,"",   1.02929E+06,   1.03596E+06,   1.03596E+06
C:/temp/Job-40.odb,Step-1,Increment      1: Step Time =    1.000,"P-40-1",          1794,       171.791,       129.648,            0.,NA,NA,"",   1.00829E+06,   1.01830E+06,   1.01830E+06
C:/temp/Job-40.odb,Step-1,Increment      1: Step Time =    1.000,"P-40-1",          1795,       165.354,       166.621,            0.,NA,NA,"",   1.08015E+06,   1.06620E+06,   1.06620E+06
C:/temp/Job-40.odb,Step-1,Increment      1: Step Time =    1.000,"P-40-1",          1796,       134.666,       27.6951,            0.,NA,NA,"",   1.11044E+06,   1.09829E+06,   1.09829E+06
C:/temp/Job-40.odb,Step-1,Increment      1: Step Time =    1.000,"P-40-1",          1797,       130.515,       28.7400,            0.,NA,NA,"",   1.11278E+06,   1.10562E+06,   1.10562E+06
C:/temp/Job-40.odb,Step-1,Increment      1: Step Time =    1.000,"P-40-1",          1798,       79.2042,       35.4882,            0.,NA,NA,"",   1.17370E+06,   1.18623E+06,   1.18623E+06
C:/temp/Job-40.odb,Step-1,Increment      1: Step Time =    1.000,"P-40-1",          1799,       80.9305,       32.9458,            0.,NA,NA,"",   1.14863E+06,   1.16490E+06,   1.16490E+06
C:/temp/Job-40.odb,Step-1,Increment      1: Step Time =    1.000,"P-40-1",          1800,       94.5217,       31.5086,            0.,NA,NA,"",   1.07390E+06,   1.11663E+06,   1.11663E+06
C:/temp/Job-40.odb,Step-1,Increment      1: Step Time =    1.000,"P-40-1",          1801,       92.8844,       28.1681,            0.,NA,NA,"",   1.06372E+06,   1.09802E+06,   1.09802E+06
C:/temp/Job-40.odb,Step-1,Increment      1: Step Time =    1.000,"P-40-1",          1802,       84.4019,       169.713,            0.,NA,NA,"",   1.11520E+06,   1.13784E+06,   1.13784E+06
C:/temp/Job-40.odb,Step-1,Increment      1: Step Time =    1.000,"P-40-1",          1803,       67.2095,       174.198,            0.,NA,NA,"",   1.15669E+06,   1.14807E+06,   1.14807E+06
C:/temp/Job-40.odb,Step-1,Increment      1: Step Time =    1.000,"P-40-1",          1804,       29.5610,       59.0347,            0.,NA,NA,"",   943.627E+03,   985.482E+03,   985.482E+03
C:/temp/Job-40.odb,Step-1,Increment      1: Step Time =    1.000,"P-40-1",          1805,       27.9574,       66.2928,            0.,NA,NA,"",   861.893E+03,   913.916E+03,   913.916E+03
C:/temp/Job-40.odb,Step-1,Increment      1: Step Time =    1.000,"P-40-1",          1806,       80.2430,       168.586,            0.,NA,NA,"",   1.14249E+06,   1.15635E+06,   1.15635E+06
C:/temp/Job-40.odb,Step-1,Increment      1: Step Time =    1.000,"P-40-1",          1807,       76.3732,       168.602,            0.,NA,NA,"",   1.16054E+06,   1.16529E+06,   1.16529E+06
C:/temp/Job-40.odb,Step-1,Increment      1: Step Time =    1.000,"P-40-1",          1808,       41.9299,       124.017,            0.,NA,NA,"",   839.949E+03,   857.690E+03,   857.690E+03
C:/temp/Job-40.odb,Step-1,Increment      1: Step Time =    1.000,"P-40-1",          1809,       39.1739,       41.6102,            0.,NA,NA,"",   1.14311E+06,   1.14409E+06,   1.14409E+06
C:/temp/Job-40.odb,Step-1,Increment      1: Step Time =    1.000,"P-40-1",          1810,       61.5467,       136.247,            0.,NA,NA,"",   1.26419E+06,   1.18926E+06,   1.18926E+06
C:/temp/Job-40.odb,Step-1,Increment      1: Step Time =    1.000,"P-40-1",          1811,       156.656,       122.382,            0.,NA,NA,"",   1.01632E+06,   975.552E+03,   975.552E+03
C:/temp/Job-40.odb,Step-1,Increment      1: Step Time =    1.000,"P-40-1",          1812,       35.0297,       116.523,            0.,NA,NA,"",   693.503E+03,   749.239E+03,   749.239E+03
C:/temp/Job-40.odb,Step-1,Increment      1: Step Time =    1.000,"P-40-1",          1813,       90.2859,       33.5265,            0.,NA,NA,"",   1.10423E+06,   1.14519E+06,   1.14519E+06
C:/temp/Job-40.odb,Step-1,Increment      1: Step Time =    1.000,"P-40-1",          1814,       84.1019,       30.0925,            0.,NA,NA,"",   1.11588E+06,   1.13786E+06,   1.13786E+06
C:/temp/Job-40.odb,Step-1,Increment      1: Step Time =    1.000,"P-40-1",          1815,       54.9740,       45.3122,            0.,NA,NA,"",   1.23075E+06,   1.19815E+06,   1.19815E+06
C:/temp/Job-40.odb,Step-1,Increment      1: Step Time =    1.000,"P-40-1",          1816,       46.7173,       45.6157,            0.,NA,NA,"",   1.17500E+06,   1.15758E+06,   1.15758E+06
C:/temp/Job-40.odb,Step-1,Increment      1: Step Time =    1.000,"P-40-1",          1817,       42.2780,       45.6652,            0.,NA,NA,"",   1.14518E+06,   1.13860E+06,   1.13860E+06
C:/temp/Job-40.odb,Step-1,Increment      1: Step Time =    1.000,"P-40-1",          1818,       142.636,       145.158,            0.,NA,NA,"",   1.29824E+06,   1.22063E+06,   1.22063E+06
C:/temp/Job-40.odb,Step-1,Increment      1: Step Time =    1.000,"P-40-1",          1819,       135.750,       40.0039,            0.,NA,NA,"",   1.21347E+06,   1.18367E+06,   1.18367E+06
C:/temp/Job-40.odb,Step-1,Increment      1: Step Time =    1.000,"P-40-1",          1820,       150.479,       42.6004,            0.,NA,NA,"",   1.18484E+06,   1.14382E+06,   1.14382E+06
C:/temp/Job-40.odb,Step-1,Increment      1: Step Time =    1.000,"P-40-1",          1821,       32.6015,       158.268,            0.,NA,NA,"",   1.10093E+06,   1.12129E+06,   1.12129E+06
C:/temp/Job-40.odb,Step-1,Increment      1: Step Time =    1.000,"P-40-1",          1822,       160.460,       152.468,            0.,NA,NA,"",   1.14230E+06,   1.10936E+06,   1.10936E+06
C:/temp/Job-40.odb,Step-1,Increment      1: Step Time =    1.000,"P-40-1",          1823,       164.782,       133.349,            0.,NA,NA,"",   1.07664E+06,   1.05441E+06,   1.05441E+06
C:/temp/Job-40.odb,Step-1,Increment      1: Step Time =    1.000,"P-40-1",          1824,       171.803,       91.0828,            0.,NA,NA,"",   843.728E+03,   893.247E+03,   893.247E+03
C:/temp/Job-40.odb,Step-1,Increment      1: Step Time =    1.000,"P-40-1",          1825,       60.1224,       145.383,            0.,NA,NA,"",   1.27075E+06,   1.21901E+06,   1.21901E+06
C:/temp/Job-40.odb,Step-1,Increment      1: Step Time =    1.000,"P-40-1",          1826,       116.178,       170.680,            0.,NA,NA,"",   1.07521E+06,   1.09976E+06,   1.09976E+06
C:/temp/Job-40.odb,Step-1,Increment      1: Step Time =    1.000,"P-40-1",          1827,       155.775,       154.476,            0.,NA,NA,"",   1.16613E+06,   1.12665E+06,   1.12665E+06
C:/temp/Job-40.odb,Step-1,Increment      1: Step Time =    1.000,"P-40-1",          1828,       145.839,       147.974,            0.,NA,NA,"",   1.26198E+06,   1.19503E+06,   1.19503E+06
C:/temp/Job-40.odb,Step-1,Increment      1: Step Time =    1.000,"P-40-1",          1829,       51.5460,       136.818,            0.,NA,NA,"",   1.12058E+06,   1.08202E+06,   1.08202E+06
C:/temp/Job-40.odb,Step-1,Increment      1: Step Time =    1.000,"P-40-1",          1830,       47.0547,       132.745,            0.,NA,NA,"",   1.02555E+06,   1.00428E+06,   1.00428E+06
C:/temp/Job-40.odb,Step-1,Increment      1: Step Time =    1.000,"P-40-1",          1831,       152.502,       151.326,            0.,NA,NA,"",   1.20160E+06,   1.15103E+06,   1.15103E+06
C:/temp/Job-40.odb,Step-1,Increment      1: Step Time =    1.000,"P-40-1",          1832,       160.855,       123.182,            0.,NA,NA,"",   1.00392E+06,   981.591E+03,   981.591E+03
C:/temp/Job-40.odb,Step-1,Increment      1: Step Time =    1.000,"P-40-1",          1833,       161.894,       165.204,            0.,NA,NA,"",   1.09696E+06,   1.07826E+06,   1.07826E+06
C:/temp/Job-40.odb,Step-1,Increment      1: Step Time =    1.000,"P-40-1",          1834,       31.8110,       129.311,            0.,NA,NA,"",   836.992E+03,   883.531E+03,   883.531E+03
C:/temp/Job-40.odb,Step-1,Increment      1: Step Time =    1.000,"P-40-1",          1835,       51.2382,       49.6276,            0.,NA,NA,"",   1.19927E+06,   1.16899E+06,   1.16899E+06
C:/temp/Job-40.odb,Step-1,Increment      1: Step Time =    1.000,"P-40-1",          1836,       42.5995,       64.3392,            0.,NA,NA,"",   1.00787E+06,   1.00511E+06,   1.00511E+06
C:/temp/Job-40.odb,Step-1,Increment      1: Step Time =    1.000,"P-40-1",          1837,       33.6108,       62.4524,            0.,NA,NA,"",   942.024E+03,   973.146E+03,   973.146E+03
C:/temp/Job-40.odb,Step-1,Increment      1: Step Time =    1.000,"P-40-1",          1838,       167.980,       130.968,            0.,NA,NA,"",   1.04006E+06,   1.03280E+06,   1.03280E+06
C:/temp/Job-40.odb,Step-1,Increment      1: Step Time =    1.000,"P-40-1",          1839,       165.823,       127.126,            0.,NA,NA,"",   1.02218E+06,   1.01319E+06,   1.01319E+06
C:/temp/Job-40.odb,Step-1,Increment      1: Step Time =    1.000,"P-40-1",          1840,       147.936,       145.172,            0.,NA,NA,"",   1.25632E+06,   1.18463E+06,   1.18463E+06
C:/temp/Job-40.odb,Step-1,Increment      1: Step Time =    1.000,"P-40-1",          1841,       48.3779,       141.601,            0.,NA,NA,"",   1.12742E+06,   1.10100E+06,   1.10100E+06
