ODB Name,Step,Frame,Part Instance Name,    Node Label,X,Y,Z,Section Name,Material Name,Section Point,       S-Mises,S-Max. In-Plane Principal (Abs),S-Max. Principal (Abs)
C:/temp/Job-41.odb,Step-1,Increment      1: Step Time =    1.000,"P-41-1",             1,       85.2138,       141.441,            0.,NA,NA,"",   2.66134E+06,   2.70483E+06,   2.70483E+06
C:/temp/Job-41.odb,Step-1,Increment      1: Step Time =    1.000,"P-41-1",             2,       72.1475,       134.062,            0.,NA,NA,"",   890.044E+03,   886.437E+03,   886.437E+03
C:/temp/Job-41.odb,Step-1,Increment      1: Step Time =    1.000,"P-41-1",             3,       65.1563,       126.869,            0.,NA,NA,"",   307.891E+03,  -32.5364E+03,  -32.5364E+03
C:/temp/Job-41.odb,Step-1,Increment      1: Step Time =    1.000,"P-41-1",             4,       58.1535,       113.597,            0.,NA,NA,"",   718.218E+03,  -733.009E+03,  -733.009E+03
C:/temp/Job-41.odb,Step-1,Increment      1: Step Time =    1.000,"P-41-1",             5,       56.0179,       98.7435,            0.,NA,NA,"",   874.668E+03,  -889.624E+03,  -889.624E+03
C:/temp/Job-41.odb,Step-1,Increment      1: Step Time =    1.000,"P-41-1",             6,       57.4455,       88.8144,            0.,NA,NA,"",   783.203E+03,  -793.657E+03,  -793.657E+03
C:/temp/Job-41.odb,Step-1,Increment      1: Step Time =    1.000,"P-41-1",             7,       63.6792,       75.1645,            0.,NA,NA,"",   332.014E+03,  -277.856E+03,  -277.856E+03
C:/temp/Job-41.odb,Step-1,Increment      1: Step Time =    1.000,"P-41-1",             8,       74.1375,       64.4033,            0.,NA,NA,"",   1.19606E+06,   1.20987E+06,   1.20987E+06
C:/temp/Job-41.odb,Step-1,Increment      1: Step Time =    1.000,"P-41-1",             9,       87.6038,       57.7823,            0.,NA,NA,"",   2.84693E+06,   2.91048E+06,   2.91048E+06
C:/temp/Job-41.odb,Step-1,Increment      1: Step Time =    1.000,"P-41-1",            10,       97.4881,       56.0718,            0.,NA,NA,"",   3.66549E+06,   3.72888E+06,   3.72888E+06
C:/temp/Job-41.odb,Step-1,Increment      1: Step Time =    1.000,"P-41-1",            11,       112.396,       57.7823,            0.,NA,NA,"",   3.63156E+06,   3.70395E+06,   3.70395E+06
C:/temp/Job-41.odb,Step-1,Increment      1: Step Time =    1.000,"P-41-1",            12,       125.863,       64.4033,            0.,NA,NA,"",   2.36308E+06,   2.40469E+06,   2.40469E+06
C:/temp/Job-41.odb,Step-1,Increment      1: Step Time =    1.000,"P-41-1",            13,       136.321,       75.1645,            0.,NA,NA,"",   598.883E+03,   245.747E+03,   245.747E+03
C:/temp/Job-41.odb,Step-1,Increment      1: Step Time =    1.000,"P-41-1",            14,       141.002,       84.0365,            0.,NA,NA,"",   896.465E+03,  -885.891E+03,  -885.891E+03
C:/temp/Job-41.odb,Step-1,Increment      1: Step Time =    1.000,"P-41-1",            15,       143.982,       98.7435,            0.,NA,NA,"",   1.59203E+06,  -1.62841E+06,  -1.62841E+06
C:/temp/Job-41.odb,Step-1,Increment      1: Step Time =    1.000,"P-41-1",            16,       141.846,       113.597,            0.,NA,NA,"",   1.08543E+06,  -1.08566E+06,  -1.08566E+06
C:/temp/Job-41.odb,Step-1,Increment      1: Step Time =    1.000,"P-41-1",            17,       134.844,       126.869,            0.,NA,NA,"",   818.803E+03,   772.311E+03,   772.311E+03
C:/temp/Job-41.odb,Step-1,Increment      1: Step Time =    1.000,"P-41-1",            18,       127.853,       134.062,            0.,NA,NA,"",   2.13102E+06,   2.14781E+06,   2.14781E+06
C:/temp/Job-41.odb,Step-1,Increment      1: Step Time =    1.000,"P-41-1",            19,       114.786,       141.441,            0.,NA,NA,"",   3.50959E+06,   3.57105E+06,   3.57105E+06
C:/temp/Job-41.odb,Step-1,Increment      1: Step Time =    1.000,"P-41-1",            20,          100.,          144.,            0.,NA,NA,"",   3.62255E+06,   3.72770E+06,   3.72770E+06
C:/temp/Job-41.odb,Step-1,Increment      1: Step Time =    1.000,"P-41-1",            21,          190.,            0.,            0.,NA,NA,"",   993.928E+03,   994.023E+03,   994.023E+03
C:/temp/Job-41.odb,Step-1,Increment      1: Step Time =    1.000,"P-41-1",            22,          180.,            0.,            0.,NA,NA,"",   988.507E+03,   988.434E+03,   988.434E+03
C:/temp/Job-41.odb,Step-1,Increment      1: Step Time =    1.000,"P-41-1",            23,          170.,            0.,            0.,NA,NA,"",   981.508E+03,   981.009E+03,   981.009E+03
C:/temp/Job-41.odb,Step-1,Increment      1: Step Time =    1.000,"P-41-1",            24,          160.,            0.,            0.,NA,NA,"",   954.967E+03,   954.131E+03,   954.131E+03
C:/temp/Job-41.odb,Step-1,Increment      1: Step Time =    1.000,"P-41-1",            25,          150.,            0.,            0.,NA,NA,"",   889.616E+03,   888.656E+03,   888.656E+03
C:/temp/Job-41.odb,Step-1,Increment      1: Step Time =    1.000,"P-41-1",            26,          140.,            0.,            0.,NA,NA,"",   789.385E+03,   788.480E+03,   788.480E+03
C:/temp/Job-41.odb,Step-1,Increment      1: Step Time =    1.000,"P-41-1",            27,          130.,            0.,            0.,NA,NA,"",   673.545E+03,   673.108E+03,   673.108E+03
C:/temp/Job-41.odb,Step-1,Increment      1: Step Time =    1.000,"P-41-1",            28,          120.,            0.,            0.,NA,NA,"",   576.478E+03,   578.136E+03,   578.136E+03
C:/temp/Job-41.odb,Step-1,Increment      1: Step Time =    1.000,"P-41-1",            29,          110.,            0.,            0.,NA,NA,"",   542.605E+03,   545.611E+03,   545.611E+03
C:/temp/Job-41.odb,Step-1,Increment      1: Step Time =    1.000,"P-41-1",            30,          100.,            0.,            0.,NA,NA,"",   605.216E+03,   607.713E+03,   607.713E+03
C:/temp/Job-41.odb,Step-1,Increment      1: Step Time =    1.000,"P-41-1",            31,           90.,            0.,            0.,NA,NA,"",   771.818E+03,   772.664E+03,   772.664E+03
C:/temp/Job-41.odb,Step-1,Increment      1: Step Time =    1.000,"P-41-1",            32,           80.,            0.,            0.,NA,NA,"",   1.00405E+06,   1.00260E+06,   1.00260E+06
C:/temp/Job-41.odb,Step-1,Increment      1: Step Time =    1.000,"P-41-1",            33,           70.,            0.,            0.,NA,NA,"",   1.25861E+06,   1.25602E+06,   1.25602E+06
C:/temp/Job-41.odb,Step-1,Increment      1: Step Time =    1.000,"P-41-1",            34,           60.,            0.,            0.,NA,NA,"",   1.49123E+06,   1.48888E+06,   1.48888E+06
C:/temp/Job-41.odb,Step-1,Increment      1: Step Time =    1.000,"P-41-1",            35,           50.,            0.,            0.,NA,NA,"",   1.67371E+06,   1.67176E+06,   1.67176E+06
C:/temp/Job-41.odb,Step-1,Increment      1: Step Time =    1.000,"P-41-1",            36,           40.,            0.,            0.,NA,NA,"",   1.79793E+06,   1.79639E+06,   1.79639E+06
C:/temp/Job-41.odb,Step-1,Increment      1: Step Time =    1.000,"P-41-1",            37,           30.,            0.,            0.,NA,NA,"",   1.88203E+06,   1.88002E+06,   1.88002E+06
C:/temp/Job-41.odb,Step-1,Increment      1: Step Time =    1.000,"P-41-1",            38,           20.,            0.,            0.,NA,NA,"",   1.95647E+06,   1.95395E+06,   1.95395E+06
C:/temp/Job-41.odb,Step-1,Increment      1: Step Time =    1.000,"P-41-1",            39,           10.,            0.,            0.,NA,NA,"",   2.08550E+06,   2.08826E+06,   2.08826E+06
C:/temp/Job-41.odb,Step-1,Increment      1: Step Time =    1.000,"P-41-1",            40,          200.,            0.,            0.,NA,NA,"",   999.513E+03,   999.019E+03,   999.019E+03
C:/temp/Job-41.odb,Step-1,Increment      1: Step Time =    1.000,"P-41-1",            41,            0.,            0.,            0.,NA,NA,"",   2.48857E+06,   2.61470E+06,   2.61470E+06
C:/temp/Job-41.odb,Step-1,Increment      1: Step Time =    1.000,"P-41-1",            42,          200.,          190.,            0.,NA,NA,"",   1.00325E+06,   1.00042E+06,   1.00042E+06
C:/temp/Job-41.odb,Step-1,Increment      1: Step Time =    1.000,"P-41-1",            43,          200.,          180.,            0.,NA,NA,"",   1.00394E+06,   1.00304E+06,   1.00304E+06
C:/temp/Job-41.odb,Step-1,Increment      1: Step Time =    1.000,"P-41-1",            44,          200.,          170.,            0.,NA,NA,"",   984.746E+03,   1.00368E+06,   1.00368E+06
C:/temp/Job-41.odb,Step-1,Increment      1: Step Time =    1.000,"P-41-1",            45,          200.,          160.,            0.,NA,NA,"",   942.339E+03,   1.00397E+06,   1.00397E+06
C:/temp/Job-41.odb,Step-1,Increment      1: Step Time =    1.000,"P-41-1",            46,          200.,          150.,            0.,NA,NA,"",   891.970E+03,   1.00645E+06,   1.00645E+06
C:/temp/Job-41.odb,Step-1,Increment      1: Step Time =    1.000,"P-41-1",            47,          200.,          140.,            0.,NA,NA,"",   881.470E+03,   1.01220E+06,   1.01220E+06
C:/temp/Job-41.odb,Step-1,Increment      1: Step Time =    1.000,"P-41-1",            48,          200.,          130.,            0.,NA,NA,"",   957.053E+03,   1.03895E+06,   1.03895E+06
C:/temp/Job-41.odb,Step-1,Increment      1: Step Time =    1.000,"P-41-1",            49,          200.,          120.,            0.,NA,NA,"",   1.10069E+06,   1.19406E+06,   1.19406E+06
C:/temp/Job-41.odb,Step-1,Increment      1: Step Time =    1.000,"P-41-1",            50,          200.,          110.,            0.,NA,NA,"",   1.23897E+06,   1.39040E+06,   1.39040E+06
C:/temp/Job-41.odb,Step-1,Increment      1: Step Time =    1.000,"P-41-1",            51,          200.,          100.,            0.,NA,NA,"",   1.29431E+06,   1.46488E+06,   1.46488E+06
C:/temp/Job-41.odb,Step-1,Increment      1: Step Time =    1.000,"P-41-1",            52,          200.,           90.,            0.,NA,NA,"",   1.23382E+06,   1.38326E+06,   1.38326E+06
C:/temp/Job-41.odb,Step-1,Increment      1: Step Time =    1.000,"P-41-1",            53,          200.,           80.,            0.,NA,NA,"",   1.09770E+06,   1.19119E+06,   1.19119E+06
C:/temp/Job-41.odb,Step-1,Increment      1: Step Time =    1.000,"P-41-1",            54,          200.,           70.,            0.,NA,NA,"",   955.775E+03,   1.04075E+06,   1.04075E+06
C:/temp/Job-41.odb,Step-1,Increment      1: Step Time =    1.000,"P-41-1",            55,          200.,           60.,            0.,NA,NA,"",   882.212E+03,   1.01353E+06,   1.01353E+06
C:/temp/Job-41.odb,Step-1,Increment      1: Step Time =    1.000,"P-41-1",            56,          200.,           50.,            0.,NA,NA,"",   894.958E+03,   1.00838E+06,   1.00838E+06
C:/temp/Job-41.odb,Step-1,Increment      1: Step Time =    1.000,"P-41-1",            57,          200.,           40.,            0.,NA,NA,"",   945.154E+03,   1.00627E+06,   1.00627E+06
C:/temp/Job-41.odb,Step-1,Increment      1: Step Time =    1.000,"P-41-1",            58,          200.,           30.,            0.,NA,NA,"",   989.425E+03,   1.00695E+06,   1.00695E+06
C:/temp/Job-41.odb,Step-1,Increment      1: Step Time =    1.000,"P-41-1",            59,          200.,           20.,            0.,NA,NA,"",   1.00378E+06,   1.00204E+06,   1.00204E+06
C:/temp/Job-41.odb,Step-1,Increment      1: Step Time =    1.000,"P-41-1",            60,          200.,           10.,            0.,NA,NA,"",   1.00331E+06,   1.00055E+06,   1.00055E+06
C:/temp/Job-41.odb,Step-1,Increment      1: Step Time =    1.000,"P-41-1",            61,          200.,          200.,            0.,NA,NA,"",   999.497E+03,   998.996E+03,   998.996E+03
C:/temp/Job-41.odb,Step-1,Increment      1: Step Time =    1.000,"P-41-1",            62,           10.,          200.,            0.,NA,NA,"",   2.08453E+06,   2.08660E+06,   2.08660E+06
C:/temp/Job-41.odb,Step-1,Increment      1: Step Time =    1.000,"P-41-1",            63,           20.,          200.,            0.,NA,NA,"",   1.94861E+06,   1.94793E+06,   1.94793E+06
C:/temp/Job-41.odb,Step-1,Increment      1: Step Time =    1.000,"P-41-1",            64,           30.,          200.,            0.,NA,NA,"",   1.88327E+06,   1.88213E+06,   1.88213E+06
C:/temp/Job-41.odb,Step-1,Increment      1: Step Time =    1.000,"P-41-1",            65,           40.,          200.,            0.,NA,NA,"",   1.80344E+06,   1.80208E+06,   1.80208E+06
C:/temp/Job-41.odb,Step-1,Increment      1: Step Time =    1.000,"P-41-1",            66,           50.,          200.,            0.,NA,NA,"",   1.67509E+06,   1.67320E+06,   1.67320E+06
C:/temp/Job-41.odb,Step-1,Increment      1: Step Time =    1.000,"P-41-1",            67,           60.,          200.,            0.,NA,NA,"",   1.49026E+06,   1.48793E+06,   1.48793E+06
C:/temp/Job-41.odb,Step-1,Increment      1: Step Time =    1.000,"P-41-1",            68,           70.,          200.,            0.,NA,NA,"",   1.25557E+06,   1.25304E+06,   1.25304E+06
C:/temp/Job-41.odb,Step-1,Increment      1: Step Time =    1.000,"P-41-1",            69,           80.,          200.,            0.,NA,NA,"",   1.00266E+06,   1.00116E+06,   1.00116E+06
C:/temp/Job-41.odb,Step-1,Increment      1: Step Time =    1.000,"P-41-1",            70,           90.,          200.,            0.,NA,NA,"",   769.941E+03,   770.711E+03,   770.711E+03
C:/temp/Job-41.odb,Step-1,Increment      1: Step Time =    1.000,"P-41-1",            71,          100.,          200.,            0.,NA,NA,"",   602.426E+03,   604.899E+03,   604.899E+03
C:/temp/Job-41.odb,Step-1,Increment      1: Step Time =    1.000,"P-41-1",            72,          110.,          200.,            0.,NA,NA,"",   543.485E+03,   546.446E+03,   546.446E+03
C:/temp/Job-41.odb,Step-1,Increment      1: Step Time =    1.000,"P-41-1",            73,          120.,          200.,            0.,NA,NA,"",   580.304E+03,   582.112E+03,   582.112E+03
C:/temp/Job-41.odb,Step-1,Increment      1: Step Time =    1.000,"P-41-1",            74,          130.,          200.,            0.,NA,NA,"",   680.329E+03,   679.897E+03,   679.897E+03
C:/temp/Job-41.odb,Step-1,Increment      1: Step Time =    1.000,"P-41-1",            75,          140.,          200.,            0.,NA,NA,"",   798.029E+03,   797.217E+03,   797.217E+03
C:/temp/Job-41.odb,Step-1,Increment      1: Step Time =    1.000,"P-41-1",            76,          150.,          200.,            0.,NA,NA,"",   899.474E+03,   898.268E+03,   898.268E+03
C:/temp/Job-41.odb,Step-1,Increment      1: Step Time =    1.000,"P-41-1",            77,          160.,          200.,            0.,NA,NA,"",   962.434E+03,   961.131E+03,   961.131E+03
C:/temp/Job-41.odb,Step-1,Increment      1: Step Time =    1.000,"P-41-1",            78,          170.,          200.,            0.,NA,NA,"",   988.404E+03,   986.831E+03,   986.831E+03
C:/temp/Job-41.odb,Step-1,Increment      1: Step Time =    1.000,"P-41-1",            79,          180.,          200.,            0.,NA,NA,"",   988.905E+03,   989.390E+03,   989.390E+03
C:/temp/Job-41.odb,Step-1,Increment      1: Step Time =    1.000,"P-41-1",            80,          190.,          200.,            0.,NA,NA,"",   994.159E+03,   994.197E+03,   994.197E+03
C:/temp/Job-41.odb,Step-1,Increment      1: Step Time =    1.000,"P-41-1",            81,            0.,          200.,            0.,NA,NA,"",   2.48756E+06,   2.61158E+06,   2.61158E+06
C:/temp/Job-41.odb,Step-1,Increment      1: Step Time =    1.000,"P-41-1",            82,            0.,           10.,            0.,NA,NA,"",   1.78121E+06,   1.95179E+06,   1.95179E+06
C:/temp/Job-41.odb,Step-1,Increment      1: Step Time =    1.000,"P-41-1",            83,            0.,           20.,            0.,NA,NA,"",   1.44472E+06,   1.60516E+06,   1.60516E+06
C:/temp/Job-41.odb,Step-1,Increment      1: Step Time =    1.000,"P-41-1",            84,            0.,           30.,            0.,NA,NA,"",   1.21819E+06,   1.35997E+06,   1.35997E+06
C:/temp/Job-41.odb,Step-1,Increment      1: Step Time =    1.000,"P-41-1",            85,            0.,           40.,            0.,NA,NA,"",   1.01807E+06,   1.13984E+06,   1.13984E+06
C:/temp/Job-41.odb,Step-1,Increment      1: Step Time =    1.000,"P-41-1",            86,            0.,           50.,            0.,NA,NA,"",   831.959E+03,   931.139E+03,   931.139E+03
C:/temp/Job-41.odb,Step-1,Increment      1: Step Time =    1.000,"P-41-1",            87,            0.,           60.,            0.,NA,NA,"",   654.442E+03,   728.620E+03,   728.620E+03
C:/temp/Job-41.odb,Step-1,Increment      1: Step Time =    1.000,"P-41-1",            88,            0.,           70.,            0.,NA,NA,"",   485.758E+03,   536.266E+03,   536.266E+03
C:/temp/Job-41.odb,Step-1,Increment      1: Step Time =    1.000,"P-41-1",            89,            0.,           80.,            0.,NA,NA,"",   331.413E+03,   365.073E+03,   365.073E+03
C:/temp/Job-41.odb,Step-1,Increment      1: Step Time =    1.000,"P-41-1",            90,            0.,           90.,            0.,NA,NA,"",   206.342E+03,   232.585E+03,   232.585E+03
C:/temp/Job-41.odb,Step-1,Increment      1: Step Time =    1.000,"P-41-1",            91,            0.,          100.,            0.,NA,NA,"",   145.880E+03,   168.445E+03,   168.445E+03
C:/temp/Job-41.odb,Step-1,Increment      1: Step Time =    1.000,"P-41-1",            92,            0.,          110.,            0.,NA,NA,"",   204.565E+03,   230.758E+03,   230.758E+03
C:/temp/Job-41.odb,Step-1,Increment      1: Step Time =    1.000,"P-41-1",            93,            0.,          120.,            0.,NA,NA,"",   329.985E+03,   363.491E+03,   363.491E+03
C:/temp/Job-41.odb,Step-1,Increment      1: Step Time =    1.000,"P-41-1",            94,            0.,          130.,            0.,NA,NA,"",   486.454E+03,   536.849E+03,   536.849E+03
C:/temp/Job-41.odb,Step-1,Increment      1: Step Time =    1.000,"P-41-1",            95,            0.,          140.,            0.,NA,NA,"",   656.346E+03,   730.207E+03,   730.207E+03
C:/temp/Job-41.odb,Step-1,Increment      1: Step Time =    1.000,"P-41-1",            96,            0.,          150.,            0.,NA,NA,"",    834.69E+03,   932.713E+03,   932.713E+03
C:/temp/Job-41.odb,Step-1,Increment      1: Step Time =    1.000,"P-41-1",            97,            0.,          160.,            0.,NA,NA,"",   1.02051E+06,   1.14067E+06,   1.14067E+06
C:/temp/Job-41.odb,Step-1,Increment      1: Step Time =    1.000,"P-41-1",            98,            0.,          170.,            0.,NA,NA,"",   1.22860E+06,   1.36850E+06,   1.36850E+06
C:/temp/Job-41.odb,Step-1,Increment      1: Step Time =    1.000,"P-41-1",            99,            0.,          180.,            0.,NA,NA,"",   1.45182E+06,   1.61424E+06,   1.61424E+06
C:/temp/Job-41.odb,Step-1,Increment      1: Step Time =    1.000,"P-41-1",           100,            0.,          190.,            0.,NA,NA,"",   1.77698E+06,   1.94688E+06,   1.94688E+06
C:/temp/Job-41.odb,Step-1,Increment      1: Step Time =    1.000,"P-41-1",           101,       107.967,       52.3321,            0.,NA,NA,"",   3.37132E+06,   3.48810E+06,   3.48810E+06
C:/temp/Job-41.odb,Step-1,Increment      1: Step Time =    1.000,"P-41-1",           102,       190.261,       50.5125,            0.,NA,NA,"",   991.951E+03,   1.08225E+06,   1.08225E+06
C:/temp/Job-41.odb,Step-1,Increment      1: Step Time =    1.000,"P-41-1",           103,       187.584,       148.885,            0.,NA,NA,"",   1.04117E+06,   1.11709E+06,   1.11709E+06
C:/temp/Job-41.odb,Step-1,Increment      1: Step Time =    1.000,"P-41-1",           104,       178.609,       144.499,            0.,NA,NA,"",   1.23688E+06,   1.23884E+06,   1.23884E+06
C:/temp/Job-41.odb,Step-1,Increment      1: Step Time =    1.000,"P-41-1",           105,       167.268,       150.961,            0.,NA,NA,"",   1.47268E+06,   1.36641E+06,   1.36641E+06
C:/temp/Job-41.odb,Step-1,Increment      1: Step Time =    1.000,"P-41-1",           106,       159.642,       148.177,            0.,NA,NA,"",   1.63593E+06,   1.46377E+06,   1.46377E+06
C:/temp/Job-41.odb,Step-1,Increment      1: Step Time =    1.000,"P-41-1",           107,       147.762,       145.939,            0.,NA,NA,"",   1.82969E+06,   1.62826E+06,   1.62826E+06
C:/temp/Job-41.odb,Step-1,Increment      1: Step Time =    1.000,"P-41-1",           108,       136.564,       150.131,            0.,NA,NA,"",   1.93743E+06,   1.87103E+06,   1.87103E+06
C:/temp/Job-41.odb,Step-1,Increment      1: Step Time =    1.000,"P-41-1",           109,       126.934,       146.170,            0.,NA,NA,"",   2.20806E+06,   2.26325E+06,   2.26325E+06
C:/temp/Job-41.odb,Step-1,Increment      1: Step Time =    1.000,"P-41-1",           110,       115.897,       145.196,            0.,NA,NA,"",   3.17055E+06,   3.26616E+06,   3.26616E+06
C:/temp/Job-41.odb,Step-1,Increment      1: Step Time =    1.000,"P-41-1",           111,       105.934,       148.564,            0.,NA,NA,"",   3.29324E+06,   3.41987E+06,   3.41987E+06
C:/temp/Job-41.odb,Step-1,Increment      1: Step Time =    1.000,"P-41-1",           112,       94.2654,       148.648,            0.,NA,NA,"",   3.05602E+06,   3.16756E+06,   3.16756E+06
C:/temp/Job-41.odb,Step-1,Increment      1: Step Time =    1.000,"P-41-1",           113,       84.2233,       146.074,            0.,NA,NA,"",   2.48695E+06,   2.54261E+06,   2.54261E+06
C:/temp/Job-41.odb,Step-1,Increment      1: Step Time =    1.000,"P-41-1",           114,       74.4809,       149.996,            0.,NA,NA,"",   1.93368E+06,    1.8972E+06,    1.8972E+06
C:/temp/Job-41.odb,Step-1,Increment      1: Step Time =    1.000,"P-41-1",           115,       58.8957,       147.931,            0.,NA,NA,"",   1.56586E+06,   1.40407E+06,   1.40407E+06
C:/temp/Job-41.odb,Step-1,Increment      1: Step Time =    1.000,"P-41-1",           116,       48.5103,       147.170,            0.,NA,NA,"",   1.36971E+06,   1.21625E+06,   1.21625E+06
C:/temp/Job-41.odb,Step-1,Increment      1: Step Time =    1.000,"P-41-1",           117,       42.2802,       145.646,            0.,NA,NA,"",   1.22268E+06,   1.10146E+06,   1.10146E+06
C:/temp/Job-41.odb,Step-1,Increment      1: Step Time =    1.000,"P-41-1",           118,       31.7712,       141.068,            0.,NA,NA,"",   913.330E+03,   868.136E+03,   868.136E+03
C:/temp/Job-41.odb,Step-1,Increment      1: Step Time =    1.000,"P-41-1",           119,       19.3810,       144.312,            0.,NA,NA,"",   850.615E+03,   881.291E+03,   881.291E+03
C:/temp/Job-41.odb,Step-1,Increment      1: Step Time =    1.000,"P-41-1",           120,       9.97085,       149.479,            0.,NA,NA,"",   878.455E+03,   953.627E+03,   953.627E+03
C:/temp/Job-41.odb,Step-1,Increment      1: Step Time =    1.000,"P-41-1",           121,       9.51101,       135.166,            0.,NA,NA,"",   579.707E+03,   635.283E+03,   635.283E+03
C:/temp/Job-41.odb,Step-1,Increment      1: Step Time =    1.000,"P-41-1",           122,       19.1218,       135.306,            0.,NA,NA,"",   628.319E+03,   658.962E+03,   658.962E+03
C:/temp/Job-41.odb,Step-1,Increment      1: Step Time =    1.000,"P-41-1",           123,       30.2697,       135.112,            0.,NA,NA,"",   727.103E+03,   695.718E+03,   695.718E+03
C:/temp/Job-41.odb,Step-1,Increment      1: Step Time =    1.000,"P-41-1",           124,       42.5692,       135.506,            0.,NA,NA,"",   903.406E+03,   772.361E+03,   772.361E+03
C:/temp/Job-41.odb,Step-1,Increment      1: Step Time =    1.000,"P-41-1",           125,       54.1786,       136.368,            0.,NA,NA,"",   1.06348E+06,   869.484E+03,   869.484E+03
C:/temp/Job-41.odb,Step-1,Increment      1: Step Time =    1.000,"P-41-1",           126,       61.1468,       138.612,            0.,NA,NA,"",   1.21084E+06,   1.05030E+06,   1.05030E+06
C:/temp/Job-41.odb,Step-1,Increment      1: Step Time =    1.000,"P-41-1",           127,       137.870,       138.642,            0.,NA,NA,"",   1.75716E+06,   1.64978E+06,   1.64978E+06
C:/temp/Job-41.odb,Step-1,Increment      1: Step Time =    1.000,"P-41-1",           128,       149.015,       136.016,            0.,NA,NA,"",   1.71128E+06,   1.41686E+06,   1.41686E+06
C:/temp/Job-41.odb,Step-1,Increment      1: Step Time =    1.000,"P-41-1",           129,       159.682,       136.846,            0.,NA,NA,"",   1.62077E+06,   1.37228E+06,   1.37228E+06
C:/temp/Job-41.odb,Step-1,Increment      1: Step Time =    1.000,"P-41-1",           130,       171.590,       135.738,            0.,NA,NA,"",   1.37168E+06,   1.28055E+06,   1.28055E+06
C:/temp/Job-41.odb,Step-1,Increment      1: Step Time =    1.000,"P-41-1",           131,       181.961,       135.445,            0.,NA,NA,"",   1.14629E+06,   1.20777E+06,   1.20777E+06
C:/temp/Job-41.odb,Step-1,Increment      1: Step Time =    1.000,"P-41-1",           132,       191.120,       135.020,            0.,NA,NA,"",   975.181E+03,   1.11378E+06,   1.11378E+06
C:/temp/Job-41.odb,Step-1,Increment      1: Step Time =    1.000,"P-41-1",           133,       150.602,       127.475,            0.,NA,NA,"",   1.45473E+06,   1.06453E+06,   1.06453E+06
C:/temp/Job-41.odb,Step-1,Increment      1: Step Time =    1.000,"P-41-1",           134,       156.758,       126.419,            0.,NA,NA,"",   1.43626E+06,   1.07874E+06,   1.07874E+06
C:/temp/Job-41.odb,Step-1,Increment      1: Step Time =    1.000,"P-41-1",           135,       168.248,       128.917,            0.,NA,NA,"",   1.34387E+06,   1.20045E+06,   1.20045E+06
C:/temp/Job-41.odb,Step-1,Increment      1: Step Time =    1.000,"P-41-1",           136,       180.831,       126.664,            0.,NA,NA,"",   1.10023E+06,   1.17327E+06,   1.17327E+06
C:/temp/Job-41.odb,Step-1,Increment      1: Step Time =    1.000,"P-41-1",           137,       190.437,       125.385,            0.,NA,NA,"",   992.935E+03,   1.13759E+06,   1.13759E+06
C:/temp/Job-41.odb,Step-1,Increment      1: Step Time =    1.000,"P-41-1",           138,       145.618,       115.160,            0.,NA,NA,"",   1.01142E+06,  -945.293E+03,  -945.293E+03
C:/temp/Job-41.odb,Step-1,Increment      1: Step Time =    1.000,"P-41-1",           139,       159.626,       112.022,            0.,NA,NA,"",   806.836E+03,   84.9024E+03,   84.9024E+03
C:/temp/Job-41.odb,Step-1,Increment      1: Step Time =    1.000,"P-41-1",           140,       169.442,       114.916,            0.,NA,NA,"",   892.637E+03,   848.210E+03,   848.210E+03
C:/temp/Job-41.odb,Step-1,Increment      1: Step Time =    1.000,"P-41-1",           141,       177.096,       114.400,            0.,NA,NA,"",   867.571E+03,   952.779E+03,   952.779E+03
C:/temp/Job-41.odb,Step-1,Increment      1: Step Time =    1.000,"P-41-1",           142,       189.809,       115.413,            0.,NA,NA,"",   987.589E+03,   1.11891E+06,   1.11891E+06
C:/temp/Job-41.odb,Step-1,Increment      1: Step Time =    1.000,"P-41-1",           143,       148.413,       105.116,            0.,NA,NA,"",   1.26645E+06,  -1.28133E+06,  -1.28133E+06
C:/temp/Job-41.odb,Step-1,Increment      1: Step Time =    1.000,"P-41-1",           144,       158.762,       106.502,            0.,NA,NA,"",   572.453E+03,  -245.633E+03,  -245.633E+03
C:/temp/Job-41.odb,Step-1,Increment      1: Step Time =    1.000,"P-41-1",           145,       169.271,       106.617,            0.,NA,NA,"",   548.207E+03,   575.792E+03,   575.792E+03
C:/temp/Job-41.odb,Step-1,Increment      1: Step Time =    1.000,"P-41-1",           146,       177.522,       107.033,            0.,NA,NA,"",   690.933E+03,   789.676E+03,   789.676E+03
C:/temp/Job-41.odb,Step-1,Increment      1: Step Time =    1.000,"P-41-1",           147,       190.251,       105.200,            0.,NA,NA,"",   983.261E+03,   1.06635E+06,   1.06635E+06
C:/temp/Job-41.odb,Step-1,Increment      1: Step Time =    1.000,"P-41-1",           148,       148.339,       93.1071,            0.,NA,NA,"",   1.22126E+06,  -1.23123E+06,  -1.23123E+06
C:/temp/Job-41.odb,Step-1,Increment      1: Step Time =    1.000,"P-41-1",           149,       159.310,       93.7951,            0.,NA,NA,"",   552.751E+03,  -40.8661E+03,  -40.8661E+03
C:/temp/Job-41.odb,Step-1,Increment      1: Step Time =    1.000,"P-41-1",           150,       169.861,       92.7565,            0.,NA,NA,"",   577.307E+03,   603.011E+03,   603.011E+03
C:/temp/Job-41.odb,Step-1,Increment      1: Step Time =    1.000,"P-41-1",           151,       178.843,       96.4969,            0.,NA,NA,"",   658.264E+03,   743.230E+03,   743.230E+03
C:/temp/Job-41.odb,Step-1,Increment      1: Step Time =    1.000,"P-41-1",           152,       189.777,       95.2017,            0.,NA,NA,"",   971.081E+03,   1.05069E+06,   1.05069E+06
C:/temp/Job-41.odb,Step-1,Increment      1: Step Time =    1.000,"P-41-1",           153,       145.013,       82.9540,            0.,NA,NA,"",   915.360E+03,  -817.875E+03,  -817.875E+03
C:/temp/Job-41.odb,Step-1,Increment      1: Step Time =    1.000,"P-41-1",           154,       159.554,       84.1195,            0.,NA,NA,"",   984.458E+03,   663.428E+03,   663.428E+03
C:/temp/Job-41.odb,Step-1,Increment      1: Step Time =    1.000,"P-41-1",           155,       167.860,       83.3962,            0.,NA,NA,"",   972.239E+03,   875.047E+03,   875.047E+03
C:/temp/Job-41.odb,Step-1,Increment      1: Step Time =    1.000,"P-41-1",           156,       189.378,       84.8070,            0.,NA,NA,"",   979.922E+03,   1.11155E+06,   1.11155E+06
C:/temp/Job-41.odb,Step-1,Increment      1: Step Time =    1.000,"P-41-1",           157,       146.310,       73.2340,            0.,NA,NA,"",   1.30994E+06,   942.373E+03,   942.373E+03
C:/temp/Job-41.odb,Step-1,Increment      1: Step Time =    1.000,"P-41-1",           158,       158.575,       74.3228,            0.,NA,NA,"",   1.38328E+06,   1.05542E+06,   1.05542E+06
C:/temp/Job-41.odb,Step-1,Increment      1: Step Time =    1.000,"P-41-1",           159,       165.846,       74.8381,            0.,NA,NA,"",   1.28489E+06,   1.09483E+06,   1.09483E+06
C:/temp/Job-41.odb,Step-1,Increment      1: Step Time =    1.000,"P-41-1",           160,       175.401,       73.3225,            0.,NA,NA,"",   1.17680E+06,   1.16317E+06,   1.16317E+06
C:/temp/Job-41.odb,Step-1,Increment      1: Step Time =    1.000,"P-41-1",           161,       190.098,       74.4686,            0.,NA,NA,"",   992.848E+03,   1.13784E+06,   1.13784E+06
C:/temp/Job-41.odb,Step-1,Increment      1: Step Time =    1.000,"P-41-1",           162,       137.751,       60.5946,            0.,NA,NA,"",   1.84369E+06,   1.72700E+06,   1.72700E+06
C:/temp/Job-41.odb,Step-1,Increment      1: Step Time =    1.000,"P-41-1",           163,       146.929,       62.0076,            0.,NA,NA,"",   1.76129E+06,   1.50828E+06,   1.50828E+06
C:/temp/Job-41.odb,Step-1,Increment      1: Step Time =    1.000,"P-41-1",           164,       158.193,       62.5903,            0.,NA,NA,"",   1.65140E+06,   1.39045E+06,   1.39045E+06
C:/temp/Job-41.odb,Step-1,Increment      1: Step Time =    1.000,"P-41-1",           165,       170.554,       63.6129,            0.,NA,NA,"",   1.40427E+06,   1.29627E+06,   1.29627E+06
C:/temp/Job-41.odb,Step-1,Increment      1: Step Time =    1.000,"P-41-1",           166,       180.490,       64.3469,            0.,NA,NA,"",   1.18140E+06,   1.21930E+06,   1.21930E+06
C:/temp/Job-41.odb,Step-1,Increment      1: Step Time =    1.000,"P-41-1",           167,       190.355,       64.7381,            0.,NA,NA,"",   986.114E+03,   1.12102E+06,   1.12102E+06
C:/temp/Job-41.odb,Step-1,Increment      1: Step Time =    1.000,"P-41-1",           168,       12.9485,       51.0267,            0.,NA,NA,"",   895.810E+03,   958.903E+03,   958.903E+03
C:/temp/Job-41.odb,Step-1,Increment      1: Step Time =    1.000,"P-41-1",           169,       21.1379,       56.1475,            0.,NA,NA,"",   849.370E+03,   872.573E+03,   872.573E+03
C:/temp/Job-41.odb,Step-1,Increment      1: Step Time =    1.000,"P-41-1",           170,       29.7274,       49.4590,            0.,NA,NA,"",   1.14945E+06,   1.11558E+06,   1.11558E+06
C:/temp/Job-41.odb,Step-1,Increment      1: Step Time =    1.000,"P-41-1",           171,       40.5931,       54.6625,            0.,NA,NA,"",   1.17448E+06,   1.06687E+06,   1.06687E+06
C:/temp/Job-41.odb,Step-1,Increment      1: Step Time =    1.000,"P-41-1",           172,       53.6722,       52.2386,            0.,NA,NA,"",   1.49415E+06,   1.32884E+06,   1.32884E+06
C:/temp/Job-41.odb,Step-1,Increment      1: Step Time =    1.000,"P-41-1",           173,       62.7613,       55.5110,            0.,NA,NA,"",   1.52400E+06,   1.37749E+06,   1.37749E+06
C:/temp/Job-41.odb,Step-1,Increment      1: Step Time =    1.000,"P-41-1",           174,       74.2467,       50.8825,            0.,NA,NA,"",   1.91538E+06,   1.88546E+06,   1.88546E+06
C:/temp/Job-41.odb,Step-1,Increment      1: Step Time =    1.000,"P-41-1",           175,       86.3106,       52.0351,            0.,NA,NA,"",   2.55042E+06,   2.62986E+06,   2.62986E+06
C:/temp/Job-41.odb,Step-1,Increment      1: Step Time =    1.000,"P-41-1",           176,       97.5682,       51.8794,            0.,NA,NA,"",   3.27925E+06,   3.38233E+06,   3.38233E+06
C:/temp/Job-41.odb,Step-1,Increment      1: Step Time =    1.000,"P-41-1",           177,       118.243,       54.9464,            0.,NA,NA,"",   2.96916E+06,   3.06715E+06,   3.06715E+06
C:/temp/Job-41.odb,Step-1,Increment      1: Step Time =    1.000,"P-41-1",           178,       130.151,       54.1211,            0.,NA,NA,"",   2.07640E+06,   2.09153E+06,   2.09153E+06
C:/temp/Job-41.odb,Step-1,Increment      1: Step Time =    1.000,"P-41-1",           179,       139.429,       52.7380,            0.,NA,NA,"",   1.92640E+06,   1.80929E+06,   1.80929E+06
C:/temp/Job-41.odb,Step-1,Increment      1: Step Time =    1.000,"P-41-1",           180,       147.671,       51.3441,            0.,NA,NA,"",   1.82980E+06,   1.65480E+06,   1.65480E+06
C:/temp/Job-41.odb,Step-1,Increment      1: Step Time =    1.000,"P-41-1",           181,       157.140,       51.9398,            0.,NA,NA,"",   1.69571E+06,   1.50608E+06,   1.50608E+06
C:/temp/Job-41.odb,Step-1,Increment      1: Step Time =    1.000,"P-41-1",           182,       171.238,       54.2759,            0.,NA,NA,"",   1.40566E+06,   1.32318E+06,   1.32318E+06
C:/temp/Job-41.odb,Step-1,Increment      1: Step Time =    1.000,"P-41-1",           183,       180.838,       55.3467,            0.,NA,NA,"",   1.19169E+06,   1.21581E+06,   1.21581E+06
C:/temp/Job-41.odb,Step-1,Increment      1: Step Time =    1.000,"P-41-1",           184,       62.9292,       61.8334,            0.,NA,NA,"",   1.17319E+06,   1.03745E+06,   1.03745E+06
C:/temp/Job-41.odb,Step-1,Increment      1: Step Time =    1.000,"P-41-1",           185,       48.9470,       61.0058,            0.,NA,NA,"",   1.11940E+06,   948.677E+03,   948.677E+03
C:/temp/Job-41.odb,Step-1,Increment      1: Step Time =    1.000,"P-41-1",           186,       41.5423,       65.5412,            0.,NA,NA,"",   861.534E+03,   737.139E+03,   737.139E+03
C:/temp/Job-41.odb,Step-1,Increment      1: Step Time =    1.000,"P-41-1",           187,       28.8399,       63.1925,            0.,NA,NA,"",   760.763E+03,   735.346E+03,   735.346E+03
C:/temp/Job-41.odb,Step-1,Increment      1: Step Time =    1.000,"P-41-1",           188,       17.8955,       63.8033,            0.,NA,NA,"",   641.731E+03,   676.789E+03,   676.789E+03
C:/temp/Job-41.odb,Step-1,Increment      1: Step Time =    1.000,"P-41-1",           189,       8.86932,       64.7815,            0.,NA,NA,"",   577.038E+03,   633.949E+03,   633.949E+03
C:/temp/Job-41.odb,Step-1,Increment      1: Step Time =    1.000,"P-41-1",           190,       52.8422,       74.0276,            0.,NA,NA,"",   578.191E+03,   29.3024E+03,   29.3024E+03
C:/temp/Job-41.odb,Step-1,Increment      1: Step Time =    1.000,"P-41-1",           191,       41.2772,       72.8321,            0.,NA,NA,"",   596.881E+03,   467.879E+03,   467.879E+03
C:/temp/Job-41.odb,Step-1,Increment      1: Step Time =    1.000,"P-41-1",           192,       33.6441,       72.3830,            0.,NA,NA,"",   548.702E+03,   491.787E+03,   491.787E+03
C:/temp/Job-41.odb,Step-1,Increment      1: Step Time =    1.000,"P-41-1",           193,       18.8801,       72.8043,            0.,NA,NA,"",   437.357E+03,   467.771E+03,   467.771E+03
C:/temp/Job-41.odb,Step-1,Increment      1: Step Time =    1.000,"P-41-1",           194,       9.56159,       74.4089,            0.,NA,NA,"",   397.179E+03,   441.286E+03,   441.286E+03
C:/temp/Job-41.odb,Step-1,Increment      1: Step Time =    1.000,"P-41-1",           195,       53.2510,       82.3021,            0.,NA,NA,"",   532.243E+03,  -511.533E+03,  -511.533E+03
C:/temp/Job-41.odb,Step-1,Increment      1: Step Time =    1.000,"P-41-1",           196,       39.2955,       87.4447,            0.,NA,NA,"",   226.355E+03,  -177.922E+03,  -177.922E+03
C:/temp/Job-41.odb,Step-1,Increment      1: Step Time =    1.000,"P-41-1",           197,       30.4298,       84.3397,            0.,NA,NA,"",   232.611E+03,   212.164E+03,   212.164E+03
C:/temp/Job-41.odb,Step-1,Increment      1: Step Time =    1.000,"P-41-1",           198,       23.5782,       83.8206,            0.,NA,NA,"",   233.672E+03,   250.187E+03,   250.187E+03
C:/temp/Job-41.odb,Step-1,Increment      1: Step Time =    1.000,"P-41-1",           199,       10.3214,       84.5323,            0.,NA,NA,"",   240.310E+03,   273.890E+03,   273.890E+03
C:/temp/Job-41.odb,Step-1,Increment      1: Step Time =    1.000,"P-41-1",           200,       52.4969,       93.4773,            0.,NA,NA,"",   717.736E+03,  -739.267E+03,  -739.267E+03
C:/temp/Job-41.odb,Step-1,Increment      1: Step Time =    1.000,"P-41-1",           201,       44.4795,       93.7560,            0.,NA,NA,"",   300.395E+03,  -326.127E+03,  -326.127E+03
C:/temp/Job-41.odb,Step-1,Increment      1: Step Time =    1.000,"P-41-1",           202,       33.4298,       93.8974,            0.,NA,NA,"",   85.8517E+03,  -18.4800E+03,  -18.4800E+03
C:/temp/Job-41.odb,Step-1,Increment      1: Step Time =    1.000,"P-41-1",           203,       24.3324,       94.1308,            0.,NA,NA,"",   114.299E+03,   127.474E+03,   127.474E+03
C:/temp/Job-41.odb,Step-1,Increment      1: Step Time =    1.000,"P-41-1",           204,       9.76955,       94.7541,            0.,NA,NA,"",   149.064E+03,   168.549E+03,   168.549E+03
C:/temp/Job-41.odb,Step-1,Increment      1: Step Time =    1.000,"P-41-1",           205,       51.3138,       103.791,            0.,NA,NA,"",   679.111E+03,  -706.641E+03,  -706.641E+03
C:/temp/Job-41.odb,Step-1,Increment      1: Step Time =    1.000,"P-41-1",           206,       42.3120,       100.881,            0.,NA,NA,"",   234.624E+03,  -262.909E+03,  -262.909E+03
C:/temp/Job-41.odb,Step-1,Increment      1: Step Time =    1.000,"P-41-1",           207,       32.7253,       106.204,            0.,NA,NA,"",   87.0276E+03,  -10.2275E+03,  -10.2275E+03
C:/temp/Job-41.odb,Step-1,Increment      1: Step Time =    1.000,"P-41-1",           208,       19.3306,       103.641,            0.,NA,NA,"",   124.035E+03,   142.935E+03,   142.935E+03
C:/temp/Job-41.odb,Step-1,Increment      1: Step Time =    1.000,"P-41-1",           209,       9.85447,       104.687,            0.,NA,NA,"",   146.175E+03,   164.321E+03,   164.321E+03
C:/temp/Job-41.odb,Step-1,Increment      1: Step Time =    1.000,"P-41-1",           210,       53.4884,        115.25,            0.,NA,NA,"",   590.070E+03,  -594.801E+03,  -594.801E+03
C:/temp/Job-41.odb,Step-1,Increment      1: Step Time =    1.000,"P-41-1",           211,       32.2790,       117.641,            0.,NA,NA,"",   285.089E+03,   244.437E+03,   244.437E+03
C:/temp/Job-41.odb,Step-1,Increment      1: Step Time =    1.000,"P-41-1",           212,       23.2086,       115.012,            0.,NA,NA,"",   213.930E+03,   230.817E+03,   230.817E+03
C:/temp/Job-41.odb,Step-1,Increment      1: Step Time =    1.000,"P-41-1",           213,       10.4831,       114.995,            0.,NA,NA,"",   233.495E+03,   266.557E+03,   266.557E+03
C:/temp/Job-41.odb,Step-1,Increment      1: Step Time =    1.000,"P-41-1",           214,       54.5053,       126.339,            0.,NA,NA,"",   570.062E+03,  -138.491E+03,  -138.491E+03
C:/temp/Job-41.odb,Step-1,Increment      1: Step Time =    1.000,"P-41-1",           215,       44.1042,       125.910,            0.,NA,NA,"",   580.819E+03,   412.330E+03,   412.330E+03
C:/temp/Job-41.odb,Step-1,Increment      1: Step Time =    1.000,"P-41-1",           216,       33.2372,       126.083,            0.,NA,NA,"",   499.889E+03,   448.766E+03,   448.766E+03
C:/temp/Job-41.odb,Step-1,Increment      1: Step Time =    1.000,"P-41-1",           217,       23.4719,       126.938,            0.,NA,NA,"",   453.050E+03,   464.383E+03,   464.383E+03
C:/temp/Job-41.odb,Step-1,Increment      1: Step Time =    1.000,"P-41-1",           218,       9.80481,       125.329,            0.,NA,NA,"",   392.519E+03,   435.832E+03,   435.832E+03
C:/temp/Job-41.odb,Step-1,Increment      1: Step Time =    1.000,"P-41-1",           219,       189.642,       10.0653,            0.,NA,NA,"",   1.00355E+06,   1.00492E+06,   1.00492E+06
C:/temp/Job-41.odb,Step-1,Increment      1: Step Time =    1.000,"P-41-1",           220,       179.345,       9.91236,            0.,NA,NA,"",   1.01824E+06,   1.01811E+06,   1.01811E+06
C:/temp/Job-41.odb,Step-1,Increment      1: Step Time =    1.000,"P-41-1",           221,       168.176,       10.7668,            0.,NA,NA,"",   1.04598E+06,   1.03912E+06,   1.03912E+06
C:/temp/Job-41.odb,Step-1,Increment      1: Step Time =    1.000,"P-41-1",           222,       158.469,       8.23132,            0.,NA,NA,"",   1.01851E+06,   1.01108E+06,   1.01108E+06
C:/temp/Job-41.odb,Step-1,Increment      1: Step Time =    1.000,"P-41-1",           223,       149.140,       12.3143,            0.,NA,NA,"",   1.07492E+06,   1.05876E+06,   1.05876E+06
C:/temp/Job-41.odb,Step-1,Increment      1: Step Time =    1.000,"P-41-1",           224,       135.143,       8.93296,            0.,NA,NA,"",   930.138E+03,   925.572E+03,   925.572E+03
C:/temp/Job-41.odb,Step-1,Increment      1: Step Time =    1.000,"P-41-1",           225,       125.569,       9.63422,            0.,NA,NA,"",   891.152E+03,   896.496E+03,   896.496E+03
C:/temp/Job-41.odb,Step-1,Increment      1: Step Time =    1.000,"P-41-1",           226,       115.503,       10.5013,            0.,NA,NA,"",   871.623E+03,   892.517E+03,   892.517E+03
C:/temp/Job-41.odb,Step-1,Increment      1: Step Time =    1.000,"P-41-1",           227,       105.225,       9.92074,            0.,NA,NA,"",   877.769E+03,   900.518E+03,   900.518E+03
C:/temp/Job-41.odb,Step-1,Increment      1: Step Time =    1.000,"P-41-1",           228,       95.2625,       9.85601,            0.,NA,NA,"",   981.502E+03,   993.707E+03,   993.707E+03
C:/temp/Job-41.odb,Step-1,Increment      1: Step Time =    1.000,"P-41-1",           229,       84.9995,       10.3737,            0.,NA,NA,"",   1.16541E+06,   1.15971E+06,   1.15971E+06
C:/temp/Job-41.odb,Step-1,Increment      1: Step Time =    1.000,"P-41-1",           230,       74.6597,       9.86644,            0.,NA,NA,"",   1.33358E+06,   1.31395E+06,   1.31395E+06
C:/temp/Job-41.odb,Step-1,Increment      1: Step Time =    1.000,"P-41-1",           231,       64.8444,       9.63590,            0.,NA,NA,"",   1.48053E+06,   1.45750E+06,   1.45750E+06
C:/temp/Job-41.odb,Step-1,Increment      1: Step Time =    1.000,"P-41-1",           232,       50.4558,       10.0142,            0.,NA,NA,"",   1.65684E+06,   1.63604E+06,   1.63604E+06
C:/temp/Job-41.odb,Step-1,Increment      1: Step Time =    1.000,"P-41-1",           233,       40.5396,       11.5495,            0.,NA,NA,"",   1.73095E+06,   1.71328E+06,   1.71328E+06
C:/temp/Job-41.odb,Step-1,Increment      1: Step Time =    1.000,"P-41-1",           234,       31.0913,       11.6547,            0.,NA,NA,"",   1.78314E+06,   1.77401E+06,   1.77401E+06
C:/temp/Job-41.odb,Step-1,Increment      1: Step Time =    1.000,"P-41-1",           235,       19.8014,       11.2970,            0.,NA,NA,"",   1.84593E+06,   1.85842E+06,   1.85842E+06
C:/temp/Job-41.odb,Step-1,Increment      1: Step Time =    1.000,"P-41-1",           236,       9.77523,       9.69596,            0.,NA,NA,"",   1.94163E+06,   2.00421E+06,   2.00421E+06
C:/temp/Job-41.odb,Step-1,Increment      1: Step Time =    1.000,"P-41-1",           237,       188.666,       20.7084,            0.,NA,NA,"",   1.01799E+06,   1.02631E+06,   1.02631E+06
C:/temp/Job-41.odb,Step-1,Increment      1: Step Time =    1.000,"P-41-1",           238,       182.376,       21.9208,            0.,NA,NA,"",   1.05466E+06,   1.05817E+06,   1.05817E+06
C:/temp/Job-41.odb,Step-1,Increment      1: Step Time =    1.000,"P-41-1",           239,       170.447,       19.7420,            0.,NA,NA,"",   1.12178E+06,   1.10767E+06,   1.10767E+06
C:/temp/Job-41.odb,Step-1,Increment      1: Step Time =    1.000,"P-41-1",           240,       158.267,       19.7202,            0.,NA,NA,"",   1.19437E+06,   1.16378E+06,   1.16378E+06
C:/temp/Job-41.odb,Step-1,Increment      1: Step Time =    1.000,"P-41-1",           241,       145.326,       21.1065,            0.,NA,NA,"",   1.27318E+06,   1.23986E+06,   1.23986E+06
C:/temp/Job-41.odb,Step-1,Increment      1: Step Time =    1.000,"P-41-1",           242,       135.957,       18.3408,            0.,NA,NA,"",   1.19906E+06,   1.18962E+06,   1.18962E+06
C:/temp/Job-41.odb,Step-1,Increment      1: Step Time =    1.000,"P-41-1",           243,       127.188,       19.3583,            0.,NA,NA,"",   1.20015E+06,   1.21649E+06,   1.21649E+06
C:/temp/Job-41.odb,Step-1,Increment      1: Step Time =    1.000,"P-41-1",           244,       116.474,       24.2368,            0.,NA,NA,"",   1.30148E+06,   1.37808E+06,   1.37808E+06
C:/temp/Job-41.odb,Step-1,Increment      1: Step Time =    1.000,"P-41-1",           245,       104.774,       23.5505,            0.,NA,NA,"",   1.32417E+06,   1.41031E+06,   1.41031E+06
C:/temp/Job-41.odb,Step-1,Increment      1: Step Time =    1.000,"P-41-1",           246,       96.0550,       19.4436,            0.,NA,NA,"",   1.28564E+06,   1.33269E+06,   1.33269E+06
C:/temp/Job-41.odb,Step-1,Increment      1: Step Time =    1.000,"P-41-1",           247,       85.2813,       21.9724,            0.,NA,NA,"",   1.51373E+06,   1.51776E+06,   1.51776E+06
C:/temp/Job-41.odb,Step-1,Increment      1: Step Time =    1.000,"P-41-1",           248,       73.6168,       24.0230,            0.,NA,NA,"",   1.68505E+06,   1.63507E+06,   1.63507E+06
C:/temp/Job-41.odb,Step-1,Increment      1: Step Time =    1.000,"P-41-1",           249,       64.5815,       19.5080,            0.,NA,NA,"",   1.64696E+06,   1.58694E+06,   1.58694E+06
C:/temp/Job-41.odb,Step-1,Increment      1: Step Time =    1.000,"P-41-1",           250,       55.5704,       19.0978,            0.,NA,NA,"",   1.68094E+06,   1.61909E+06,   1.61909E+06
C:/temp/Job-41.odb,Step-1,Increment      1: Step Time =    1.000,"P-41-1",           251,       43.1878,       20.8939,            0.,NA,NA,"",   1.69018E+06,   1.64110E+06,   1.64110E+06
C:/temp/Job-41.odb,Step-1,Increment      1: Step Time =    1.000,"P-41-1",           252,       29.4419,       18.2137,            0.,NA,NA,"",   1.71333E+06,   1.70224E+06,   1.70224E+06
C:/temp/Job-41.odb,Step-1,Increment      1: Step Time =    1.000,"P-41-1",           253,       19.0185,       19.1765,            0.,NA,NA,"",   1.67327E+06,   1.70730E+06,   1.70730E+06
C:/temp/Job-41.odb,Step-1,Increment      1: Step Time =    1.000,"P-41-1",           254,       11.4946,       19.4763,            0.,NA,NA,"",   1.60383E+06,   1.69152E+06,   1.69152E+06
C:/temp/Job-41.odb,Step-1,Increment      1: Step Time =    1.000,"P-41-1",           255,       188.118,       31.5899,            0.,NA,NA,"",   1.02915E+06,   1.05296E+06,   1.05296E+06
C:/temp/Job-41.odb,Step-1,Increment      1: Step Time =    1.000,"P-41-1",           256,       180.191,       30.6861,            0.,NA,NA,"",   1.11177E+06,   1.11427E+06,   1.11427E+06
C:/temp/Job-41.odb,Step-1,Increment      1: Step Time =    1.000,"P-41-1",           257,       168.832,       28.7408,            0.,NA,NA,"",   1.23112E+06,   1.19857E+06,   1.19857E+06
C:/temp/Job-41.odb,Step-1,Increment      1: Step Time =    1.000,"P-41-1",           258,       159.156,       31.2784,            0.,NA,NA,"",   1.38996E+06,   1.32277E+06,   1.32277E+06
C:/temp/Job-41.odb,Step-1,Increment      1: Step Time =    1.000,"P-41-1",           259,       153.570,       31.3864,            0.,NA,NA,"",   1.44730E+06,   1.37475E+06,   1.37475E+06
C:/temp/Job-41.odb,Step-1,Increment      1: Step Time =    1.000,"P-41-1",           260,       138.315,       29.0097,            0.,NA,NA,"",   1.47848E+06,   1.45003E+06,   1.45003E+06
C:/temp/Job-41.odb,Step-1,Increment      1: Step Time =    1.000,"P-41-1",           261,       129.402,       31.1617,            0.,NA,NA,"",   1.54074E+06,   1.56561E+06,   1.56561E+06
C:/temp/Job-41.odb,Step-1,Increment      1: Step Time =    1.000,"P-41-1",           262,       115.619,       30.7609,            0.,NA,NA,"",   1.52019E+06,   1.62792E+06,   1.62792E+06
C:/temp/Job-41.odb,Step-1,Increment      1: Step Time =    1.000,"P-41-1",           263,       95.8744,       31.8472,            0.,NA,NA,"",   1.67599E+06,   1.77972E+06,   1.77972E+06
C:/temp/Job-41.odb,Step-1,Increment      1: Step Time =    1.000,"P-41-1",           264,       83.7042,       31.5720,            0.,NA,NA,"",   1.77487E+06,   1.78999E+06,   1.78999E+06
C:/temp/Job-41.odb,Step-1,Increment      1: Step Time =    1.000,"P-41-1",           265,       74.5165,       32.7670,            0.,NA,NA,"",   1.84326E+06,   1.79226E+06,   1.79226E+06
C:/temp/Job-41.odb,Step-1,Increment      1: Step Time =    1.000,"P-41-1",           266,       64.2252,       30.4130,            0.,NA,NA,"",   1.79477E+06,   1.69715E+06,   1.69715E+06
C:/temp/Job-41.odb,Step-1,Increment      1: Step Time =    1.000,"P-41-1",           267,       53.5726,       31.4909,            0.,NA,NA,"",   1.73531E+06,   1.62534E+06,   1.62534E+06
C:/temp/Job-41.odb,Step-1,Increment      1: Step Time =    1.000,"P-41-1",           268,       43.4116,       30.3798,            0.,NA,NA,"",   1.65197E+06,   1.57118E+06,   1.57118E+06
C:/temp/Job-41.odb,Step-1,Increment      1: Step Time =    1.000,"P-41-1",           269,       31.1660,       29.9510,            0.,NA,NA,"",   1.54938E+06,   1.52230E+06,   1.52230E+06
C:/temp/Job-41.odb,Step-1,Increment      1: Step Time =    1.000,"P-41-1",           270,       21.3338,       32.3278,            0.,NA,NA,"",   1.40577E+06,   1.43429E+06,   1.43429E+06
C:/temp/Job-41.odb,Step-1,Increment      1: Step Time =    1.000,"P-41-1",           271,       11.6900,       31.0197,            0.,NA,NA,"",   1.32034E+06,   1.40915E+06,   1.40915E+06
C:/temp/Job-41.odb,Step-1,Increment      1: Step Time =    1.000,"P-41-1",           272,       188.721,       40.8209,            0.,NA,NA,"",   1.02289E+06,   1.07144E+06,   1.07144E+06
C:/temp/Job-41.odb,Step-1,Increment      1: Step Time =    1.000,"P-41-1",           273,       180.108,       43.9963,            0.,NA,NA,"",   1.17909E+06,   1.18544E+06,   1.18544E+06
C:/temp/Job-41.odb,Step-1,Increment      1: Step Time =    1.000,"P-41-1",           274,       167.186,       42.1224,            0.,NA,NA,"",   1.41344E+06,   1.33431E+06,   1.33431E+06
C:/temp/Job-41.odb,Step-1,Increment      1: Step Time =    1.000,"P-41-1",           275,       152.745,       39.9561,            0.,NA,NA,"",   1.61365E+06,   1.50025E+06,   1.50025E+06
C:/temp/Job-41.odb,Step-1,Increment      1: Step Time =    1.000,"P-41-1",           276,       138.738,       36.7511,            0.,NA,NA,"",   1.68017E+06,   1.63552E+06,   1.63552E+06
C:/temp/Job-41.odb,Step-1,Increment      1: Step Time =    1.000,"P-41-1",           277,       126.623,       41.8537,            0.,NA,NA,"",   1.87877E+06,   1.93667E+06,   1.93667E+06
C:/temp/Job-41.odb,Step-1,Increment      1: Step Time =    1.000,"P-41-1",           278,       114.424,       42.0978,            0.,NA,NA,"",   2.03836E+06,   2.19278E+06,   2.19278E+06
C:/temp/Job-41.odb,Step-1,Increment      1: Step Time =    1.000,"P-41-1",           279,       94.2403,       42.2206,            0.,NA,NA,"",   2.17403E+06,   2.31376E+06,   2.31376E+06
C:/temp/Job-41.odb,Step-1,Increment      1: Step Time =    1.000,"P-41-1",           280,       83.0496,       40.9741,            0.,NA,NA,"",   2.01825E+06,   2.05584E+06,   2.05584E+06
C:/temp/Job-41.odb,Step-1,Increment      1: Step Time =    1.000,"P-41-1",           281,       73.2758,       41.2284,            0.,NA,NA,"",   1.92235E+06,   1.86434E+06,   1.86434E+06
C:/temp/Job-41.odb,Step-1,Increment      1: Step Time =    1.000,"P-41-1",           282,       64.2046,       41.5268,            0.,NA,NA,"",   1.83208E+06,   1.70719E+06,   1.70719E+06
C:/temp/Job-41.odb,Step-1,Increment      1: Step Time =    1.000,"P-41-1",           283,       52.1854,       43.1410,            0.,NA,NA,"",   1.63566E+06,   1.49517E+06,   1.49517E+06
C:/temp/Job-41.odb,Step-1,Increment      1: Step Time =    1.000,"P-41-1",           284,       43.6182,       42.1544,            0.,NA,NA,"",   1.51377E+06,   1.40375E+06,   1.40375E+06
C:/temp/Job-41.odb,Step-1,Increment      1: Step Time =    1.000,"P-41-1",           285,       32.8725,       40.7924,            0.,NA,NA,"",   1.37583E+06,   1.33039E+06,   1.33039E+06
C:/temp/Job-41.odb,Step-1,Increment      1: Step Time =    1.000,"P-41-1",           286,       23.7111,       43.9651,            0.,NA,NA,"",   1.19069E+06,   1.19866E+06,   1.19866E+06
C:/temp/Job-41.odb,Step-1,Increment      1: Step Time =    1.000,"P-41-1",           287,       9.33980,       41.2154,            0.,NA,NA,"",   1.06894E+06,   1.16041E+06,   1.16041E+06
C:/temp/Job-41.odb,Step-1,Increment      1: Step Time =    1.000,"P-41-1",           288,       191.548,       158.449,            0.,NA,NA,"",   983.672E+03,   1.04526E+06,   1.04526E+06
C:/temp/Job-41.odb,Step-1,Increment      1: Step Time =    1.000,"P-41-1",           289,       179.184,       157.554,            0.,NA,NA,"",   1.18373E+06,   1.18509E+06,   1.18509E+06
C:/temp/Job-41.odb,Step-1,Increment      1: Step Time =    1.000,"P-41-1",           290,       168.697,       160.173,            0.,NA,NA,"",   1.35920E+06,   1.29732E+06,   1.29732E+06
C:/temp/Job-41.odb,Step-1,Increment      1: Step Time =    1.000,"P-41-1",           291,       155.571,       157.955,            0.,NA,NA,"",   1.61391E+06,   1.48674E+06,   1.48674E+06
C:/temp/Job-41.odb,Step-1,Increment      1: Step Time =    1.000,"P-41-1",           292,       146.043,       157.578,            0.,NA,NA,"",   1.73635E+06,   1.62430E+06,   1.62430E+06
C:/temp/Job-41.odb,Step-1,Increment      1: Step Time =    1.000,"P-41-1",           293,       135.682,       157.068,            0.,NA,NA,"",   1.84045E+06,   1.79973E+06,   1.79973E+06
C:/temp/Job-41.odb,Step-1,Increment      1: Step Time =    1.000,"P-41-1",           294,       119.977,       157.922,            0.,NA,NA,"",   1.95505E+06,   2.07301E+06,   2.07301E+06
C:/temp/Job-41.odb,Step-1,Increment      1: Step Time =    1.000,"P-41-1",           295,       106.212,       159.830,            0.,NA,NA,"",   2.00512E+06,   2.17618E+06,   2.17618E+06
C:/temp/Job-41.odb,Step-1,Increment      1: Step Time =    1.000,"P-41-1",           296,       94.3647,       158.483,            0.,NA,NA,"",   2.10146E+06,   2.24337E+06,   2.24337E+06
C:/temp/Job-41.odb,Step-1,Increment      1: Step Time =    1.000,"P-41-1",           297,       82.1219,       160.905,            0.,NA,NA,"",   1.96517E+06,   1.98612E+06,   1.98612E+06
C:/temp/Job-41.odb,Step-1,Increment      1: Step Time =    1.000,"P-41-1",           298,       73.4975,       160.482,            0.,NA,NA,"",   1.92791E+06,   1.86711E+06,   1.86711E+06
C:/temp/Job-41.odb,Step-1,Increment      1: Step Time =    1.000,"P-41-1",           299,       64.6488,       160.378,            0.,NA,NA,"",   1.84287E+06,   1.72465E+06,   1.72465E+06
C:/temp/Job-41.odb,Step-1,Increment      1: Step Time =    1.000,"P-41-1",           300,       50.9013,       157.715,            0.,NA,NA,"",   1.62977E+06,   1.49227E+06,   1.49227E+06
C:/temp/Job-41.odb,Step-1,Increment      1: Step Time =    1.000,"P-41-1",           301,       38.3563,       155.469,            0.,NA,NA,"",   1.38240E+06,   1.29841E+06,   1.29841E+06
C:/temp/Job-41.odb,Step-1,Increment      1: Step Time =    1.000,"P-41-1",           302,       30.6460,       156.720,            0.,NA,NA,"",   1.29586E+06,   1.26106E+06,   1.26106E+06
C:/temp/Job-41.odb,Step-1,Increment      1: Step Time =    1.000,"P-41-1",           303,       20.5623,       156.389,            0.,NA,NA,"",   1.14931E+06,   1.17848E+06,   1.17848E+06
C:/temp/Job-41.odb,Step-1,Increment      1: Step Time =    1.000,"P-41-1",           304,       11.5515,       159.210,            0.,NA,NA,"",   1.10277E+06,   1.18439E+06,   1.18439E+06
C:/temp/Job-41.odb,Step-1,Increment      1: Step Time =    1.000,"P-41-1",           305,       188.735,       168.464,            0.,NA,NA,"",   1.02233E+06,   1.04754E+06,   1.04754E+06
C:/temp/Job-41.odb,Step-1,Increment      1: Step Time =    1.000,"P-41-1",           306,       178.525,       172.715,            0.,NA,NA,"",   1.11035E+06,   1.10738E+06,   1.10738E+06
C:/temp/Job-41.odb,Step-1,Increment      1: Step Time =    1.000,"P-41-1",           307,       166.832,       171.433,            0.,NA,NA,"",   1.25054E+06,   1.21234E+06,   1.21234E+06
C:/temp/Job-41.odb,Step-1,Increment      1: Step Time =    1.000,"P-41-1",           308,       156.396,       168.473,            0.,NA,NA,"",   1.42471E+06,   1.35304E+06,   1.35304E+06
C:/temp/Job-41.odb,Step-1,Increment      1: Step Time =    1.000,"P-41-1",           309,       145.325,       165.958,            0.,NA,NA,"",   1.57476E+06,   1.50380E+06,   1.50380E+06
C:/temp/Job-41.odb,Step-1,Increment      1: Step Time =    1.000,"P-41-1",           310,       134.714,       169.871,            0.,NA,NA,"",   1.51733E+06,   1.50657E+06,   1.50657E+06
C:/temp/Job-41.odb,Step-1,Increment      1: Step Time =    1.000,"P-41-1",           311,       124.939,       167.159,            0.,NA,NA,"",   1.58966E+06,   1.64680E+06,   1.64680E+06
C:/temp/Job-41.odb,Step-1,Increment      1: Step Time =    1.000,"P-41-1",           312,       114.770,       168.604,            0.,NA,NA,"",   1.54134E+06,   1.65148E+06,   1.65148E+06
C:/temp/Job-41.odb,Step-1,Increment      1: Step Time =    1.000,"P-41-1",           313,       105.823,       166.636,            0.,NA,NA,"",   1.65694E+06,   1.79881E+06,   1.79881E+06
C:/temp/Job-41.odb,Step-1,Increment      1: Step Time =    1.000,"P-41-1",           314,       92.6374,       167.802,            0.,NA,NA,"",   1.72027E+06,   1.80534E+06,   1.80534E+06
C:/temp/Job-41.odb,Step-1,Increment      1: Step Time =    1.000,"P-41-1",           315,       80.2834,       170.228,            0.,NA,NA,"",   1.76189E+06,   1.74841E+06,   1.74841E+06
C:/temp/Job-41.odb,Step-1,Increment      1: Step Time =    1.000,"P-41-1",           316,       72.1066,       171.193,            0.,NA,NA,"",   1.77921E+06,   1.71540E+06,   1.71540E+06
C:/temp/Job-41.odb,Step-1,Increment      1: Step Time =    1.000,"P-41-1",           317,       63.4071,       169.316,            0.,NA,NA,"",   1.79844E+06,   1.69752E+06,   1.69752E+06
C:/temp/Job-41.odb,Step-1,Increment      1: Step Time =    1.000,"P-41-1",           318,       49.4792,       166.702,            0.,NA,NA,"",   1.69219E+06,   1.58453E+06,   1.58453E+06
C:/temp/Job-41.odb,Step-1,Increment      1: Step Time =    1.000,"P-41-1",           319,       41.7335,       168.308,            0.,NA,NA,"",   1.62827E+06,   1.54770E+06,   1.54770E+06
C:/temp/Job-41.odb,Step-1,Increment      1: Step Time =    1.000,"P-41-1",           320,       26.9364,       166.200,            0.,NA,NA,"",   1.44384E+06,   1.43814E+06,   1.43814E+06
C:/temp/Job-41.odb,Step-1,Increment      1: Step Time =    1.000,"P-41-1",           321,       20.2039,       169.688,            0.,NA,NA,"",   1.43945E+06,   1.47199E+06,   1.47199E+06
C:/temp/Job-41.odb,Step-1,Increment      1: Step Time =    1.000,"P-41-1",           322,       12.2962,       168.561,            0.,NA,NA,"",   1.31426E+06,   1.39987E+06,   1.39987E+06
C:/temp/Job-41.odb,Step-1,Increment      1: Step Time =    1.000,"P-41-1",           323,       190.253,       179.523,            0.,NA,NA,"",   1.01205E+06,   1.01963E+06,   1.01963E+06
C:/temp/Job-41.odb,Step-1,Increment      1: Step Time =    1.000,"P-41-1",           324,       179.534,       180.987,            0.,NA,NA,"",   1.05764E+06,   1.05800E+06,   1.05800E+06
C:/temp/Job-41.odb,Step-1,Increment      1: Step Time =    1.000,"P-41-1",           325,       169.625,       179.594,            0.,NA,NA,"",   1.13667E+06,   1.11935E+06,   1.11935E+06
C:/temp/Job-41.odb,Step-1,Increment      1: Step Time =    1.000,"P-41-1",           326,       155.574,       179.191,            0.,NA,NA,"",   1.22346E+06,   1.18854E+06,   1.18854E+06
C:/temp/Job-41.odb,Step-1,Increment      1: Step Time =    1.000,"P-41-1",           327,       144.685,       181.625,            0.,NA,NA,"",   1.21155E+06,   1.18452E+06,   1.18452E+06
C:/temp/Job-41.odb,Step-1,Increment      1: Step Time =    1.000,"P-41-1",           328,       136.347,       180.475,            0.,NA,NA,"",   1.23141E+06,   1.21927E+06,   1.21927E+06
C:/temp/Job-41.odb,Step-1,Increment      1: Step Time =    1.000,"P-41-1",           329,       127.437,       176.392,            0.,NA,NA,"",   1.32696E+06,   1.35194E+06,   1.35194E+06
C:/temp/Job-41.odb,Step-1,Increment      1: Step Time =    1.000,"P-41-1",           330,       115.959,       176.931,            0.,NA,NA,"",   1.26727E+06,   1.33432E+06,   1.33432E+06
C:/temp/Job-41.odb,Step-1,Increment      1: Step Time =    1.000,"P-41-1",           331,       103.525,       178.650,            0.,NA,NA,"",   1.26580E+06,   1.34105E+06,   1.34105E+06
C:/temp/Job-41.odb,Step-1,Increment      1: Step Time =    1.000,"P-41-1",           332,       96.4841,       177.190,            0.,NA,NA,"",   1.38581E+06,   1.45012E+06,   1.45012E+06
C:/temp/Job-41.odb,Step-1,Increment      1: Step Time =    1.000,"P-41-1",           333,       87.4886,       176.039,            0.,NA,NA,"",   1.53261E+06,   1.55368E+06,   1.55368E+06
C:/temp/Job-41.odb,Step-1,Increment      1: Step Time =    1.000,"P-41-1",           334,       74.4096,       180.844,            0.,NA,NA,"",   1.56565E+06,   1.52506E+06,   1.52506E+06
C:/temp/Job-41.odb,Step-1,Increment      1: Step Time =    1.000,"P-41-1",           335,       65.5273,       182.141,            0.,NA,NA,"",   1.61544E+06,   1.56201E+06,   1.56201E+06
C:/temp/Job-41.odb,Step-1,Increment      1: Step Time =    1.000,"P-41-1",           336,       53.0555,       177.005,            0.,NA,NA,"",   1.70840E+06,   1.63364E+06,   1.63364E+06
C:/temp/Job-41.odb,Step-1,Increment      1: Step Time =    1.000,"P-41-1",           337,       35.6127,       179.046,            0.,NA,NA,"",   1.67928E+06,   1.64851E+06,   1.64851E+06
C:/temp/Job-41.odb,Step-1,Increment      1: Step Time =    1.000,"P-41-1",           338,       27.4292,       178.778,            0.,NA,NA,"",   1.67015E+06,   1.66398E+06,   1.66398E+06
C:/temp/Job-41.odb,Step-1,Increment      1: Step Time =    1.000,"P-41-1",           339,       19.1123,       179.524,            0.,NA,NA,"",   1.63896E+06,   1.67585E+06,   1.67585E+06
C:/temp/Job-41.odb,Step-1,Increment      1: Step Time =    1.000,"P-41-1",           340,       11.8263,       179.622,            0.,NA,NA,"",   1.58138E+06,   1.66760E+06,   1.66760E+06
C:/temp/Job-41.odb,Step-1,Increment      1: Step Time =    1.000,"P-41-1",           341,       190.109,       189.652,            0.,NA,NA,"",   1.00372E+06,   1.00501E+06,   1.00501E+06
C:/temp/Job-41.odb,Step-1,Increment      1: Step Time =    1.000,"P-41-1",           342,       179.616,       188.208,            0.,NA,NA,"",   1.02596E+06,   1.02611E+06,   1.02611E+06
C:/temp/Job-41.odb,Step-1,Increment      1: Step Time =    1.000,"P-41-1",           343,       168.534,       187.598,            0.,NA,NA,"",   1.06169E+06,   1.05301E+06,   1.05301E+06
C:/temp/Job-41.odb,Step-1,Increment      1: Step Time =    1.000,"P-41-1",           344,       159.162,       188.358,            0.,NA,NA,"",   1.06681E+06,   1.05369E+06,   1.05369E+06
C:/temp/Job-41.odb,Step-1,Increment      1: Step Time =    1.000,"P-41-1",           345,       149.503,       190.238,            0.,NA,NA,"",   1.02410E+06,   1.01290E+06,   1.01290E+06
C:/temp/Job-41.odb,Step-1,Increment      1: Step Time =    1.000,"P-41-1",           346,       135.405,       190.448,            0.,NA,NA,"",   951.137E+03,   945.668E+03,   945.668E+03
C:/temp/Job-41.odb,Step-1,Increment      1: Step Time =    1.000,"P-41-1",           347,       125.635,       190.090,            0.,NA,NA,"",   901.159E+03,   906.971E+03,   906.971E+03
C:/temp/Job-41.odb,Step-1,Increment      1: Step Time =    1.000,"P-41-1",           348,       115.183,       189.349,            0.,NA,NA,"",   878.528E+03,   899.715E+03,   899.715E+03
C:/temp/Job-41.odb,Step-1,Increment      1: Step Time =    1.000,"P-41-1",           349,       104.852,       189.896,            0.,NA,NA,"",   881.787E+03,   906.129E+03,   906.129E+03
C:/temp/Job-41.odb,Step-1,Increment      1: Step Time =    1.000,"P-41-1",           350,       95.0489,       190.357,            0.,NA,NA,"",   979.974E+03,   991.233E+03,   991.233E+03
C:/temp/Job-41.odb,Step-1,Increment      1: Step Time =    1.000,"P-41-1",           351,       85.0574,       189.693,            0.,NA,NA,"",   1.16431E+06,   1.15775E+06,   1.15775E+06
C:/temp/Job-41.odb,Step-1,Increment      1: Step Time =    1.000,"P-41-1",           352,       75.1405,       190.304,            0.,NA,NA,"",   1.32195E+06,   1.30357E+06,   1.30357E+06
C:/temp/Job-41.odb,Step-1,Increment      1: Step Time =    1.000,"P-41-1",           353,       65.3601,       190.998,            0.,NA,NA,"",   1.46446E+06,   1.44361E+06,   1.44361E+06
C:/temp/Job-41.odb,Step-1,Increment      1: Step Time =    1.000,"P-41-1",           354,       51.5911,       186.731,            0.,NA,NA,"",   1.65834E+06,   1.62514E+06,   1.62514E+06
C:/temp/Job-41.odb,Step-1,Increment      1: Step Time =    1.000,"P-41-1",           355,       41.7827,       191.031,            0.,NA,NA,"",   1.73455E+06,   1.72151E+06,   1.72151E+06
C:/temp/Job-41.odb,Step-1,Increment      1: Step Time =    1.000,"P-41-1",           356,       31.6392,       188.675,            0.,NA,NA,"",   1.78194E+06,   1.77374E+06,   1.77374E+06
C:/temp/Job-41.odb,Step-1,Increment      1: Step Time =    1.000,"P-41-1",           357,       20.4847,       190.260,            0.,NA,NA,"",   1.86536E+06,   1.87448E+06,   1.87448E+06
C:/temp/Job-41.odb,Step-1,Increment      1: Step Time =    1.000,"P-41-1",           358,       10.3485,       190.109,            0.,NA,NA,"",   1.93311E+06,   1.99120E+06,   1.99120E+06
C:/temp/Job-41.odb,Step-1,Increment      1: Step Time =    1.000,"P-41-1",           359,       94.9844,       143.713,            0.,NA,NA,"",   3.42928E+06,   3.51138E+06,   3.51138E+06
C:/temp/Job-41.odb,Step-1,Increment      1: Step Time =    1.000,"P-41-1",           360,       90.0341,       142.857,            0.,NA,NA,"",   3.10869E+06,   3.16622E+06,   3.16622E+06
C:/temp/Job-41.odb,Step-1,Increment      1: Step Time =    1.000,"P-41-1",           361,       80.5863,       139.486,            0.,NA,NA,"",   2.13720E+06,   2.16060E+06,   2.16060E+06
C:/temp/Job-41.odb,Step-1,Increment      1: Step Time =    1.000,"P-41-1",           362,       76.2118,       137.015,            0.,NA,NA,"",   1.50519E+06,   1.51569E+06,   1.51569E+06
C:/temp/Job-41.odb,Step-1,Increment      1: Step Time =    1.000,"P-41-1",           363,       68.4462,       130.665,            0.,NA,NA,"",   462.220E+03,   421.608E+03,   421.608E+03
C:/temp/Job-41.odb,Step-1,Increment      1: Step Time =    1.000,"P-41-1",           364,       62.3206,       122.721,            0.,NA,NA,"",   425.273E+03,  -412.085E+03,  -412.085E+03
C:/temp/Job-41.odb,Step-1,Increment      1: Step Time =    1.000,"P-41-1",           365,       59.9762,       118.278,            0.,NA,NA,"",   603.637E+03,  -606.958E+03,  -606.958E+03
C:/temp/Job-41.odb,Step-1,Increment      1: Step Time =    1.000,"P-41-1",           366,       56.8764,       108.738,            0.,NA,NA,"",   784.506E+03,  -807.896E+03,  -807.896E+03
C:/temp/Job-41.odb,Step-1,Increment      1: Step Time =    1.000,"P-41-1",           367,       56.1614,       103.765,            0.,NA,NA,"",   840.957E+03,  -859.378E+03,  -859.378E+03
C:/temp/Job-41.odb,Step-1,Increment      1: Step Time =    1.000,"P-41-1",           368,       56.4479,       93.7381,            0.,NA,NA,"",   859.073E+03,   -872.74E+03,   -872.74E+03
C:/temp/Job-41.odb,Step-1,Increment      1: Step Time =    1.000,"P-41-1",           369,       58.9980,       84.0365,            0.,NA,NA,"",   659.149E+03,  -668.703E+03,  -668.703E+03
C:/temp/Job-41.odb,Step-1,Increment      1: Step Time =    1.000,"P-41-1",           370,       61.0849,       79.4666,            0.,NA,NA,"",   498.759E+03,  -494.489E+03,  -494.489E+03
C:/temp/Job-41.odb,Step-1,Increment      1: Step Time =    1.000,"P-41-1",           371,       66.7470,       71.1861,            0.,NA,NA,"",   364.273E+03,   138.613E+03,   138.613E+03
C:/temp/Job-41.odb,Step-1,Increment      1: Step Time =    1.000,"P-41-1",           372,       70.2483,       67.5834,            0.,NA,NA,"",   688.892E+03,   673.873E+03,   673.873E+03
C:/temp/Job-41.odb,Step-1,Increment      1: Step Time =    1.000,"P-41-1",           373,       78.3638,       61.6872,            0.,NA,NA,"",   1.75271E+06,   1.78307E+06,   1.78307E+06
C:/temp/Job-41.odb,Step-1,Increment      1: Step Time =    1.000,"P-41-1",           374,       82.8721,       59.4706,            0.,NA,NA,"",   2.31479E+06,   2.35934E+06,   2.35934E+06
C:/temp/Job-41.odb,Step-1,Increment      1: Step Time =    1.000,"P-41-1",           375,       92.4970,       56.6444,            0.,NA,NA,"",   3.31203E+06,   3.37285E+06,   3.37285E+06
C:/temp/Job-41.odb,Step-1,Increment      1: Step Time =    1.000,"P-41-1",           376,       102.512,       56.0718,            0.,NA,NA,"",   3.83090E+06,   3.90303E+06,   3.90303E+06
C:/temp/Job-41.odb,Step-1,Increment      1: Step Time =    1.000,"P-41-1",           377,       107.503,       56.6444,            0.,NA,NA,"",   3.81642E+06,   3.88892E+06,   3.88892E+06
C:/temp/Job-41.odb,Step-1,Increment      1: Step Time =    1.000,"P-41-1",           378,       117.128,       59.4706,            0.,NA,NA,"",   3.30636E+06,   3.37229E+06,   3.37229E+06
C:/temp/Job-41.odb,Step-1,Increment      1: Step Time =    1.000,"P-41-1",           379,       121.636,       61.6872,            0.,NA,NA,"",   2.87043E+06,   2.92666E+06,   2.92666E+06
C:/temp/Job-41.odb,Step-1,Increment      1: Step Time =    1.000,"P-41-1",           380,       129.752,       67.5834,            0.,NA,NA,"",   1.80478E+06,   1.81635E+06,   1.81635E+06
C:/temp/Job-41.odb,Step-1,Increment      1: Step Time =    1.000,"P-41-1",           381,       133.253,       71.1861,            0.,NA,NA,"",   1.18422E+06,   1.14682E+06,   1.14682E+06
C:/temp/Job-41.odb,Step-1,Increment      1: Step Time =    1.000,"P-41-1",           382,       138.915,       79.4666,            0.,NA,NA,"",   549.823E+03,  -459.226E+03,  -459.226E+03
C:/temp/Job-41.odb,Step-1,Increment      1: Step Time =    1.000,"P-41-1",           383,       142.554,       88.8144,            0.,NA,NA,"",   1.26238E+06,  -1.27231E+06,  -1.27231E+06
C:/temp/Job-41.odb,Step-1,Increment      1: Step Time =    1.000,"P-41-1",           384,       143.552,       93.7381,            0.,NA,NA,"",   1.49801E+06,  -1.52358E+06,  -1.52358E+06
C:/temp/Job-41.odb,Step-1,Increment      1: Step Time =    1.000,"P-41-1",           385,       143.839,       103.765,            0.,NA,NA,"",   1.57626E+06,  -1.60071E+06,  -1.60071E+06
C:/temp/Job-41.odb,Step-1,Increment      1: Step Time =    1.000,"P-41-1",           386,       143.124,       108.738,            0.,NA,NA,"",   1.41077E+06,  -1.42371E+06,  -1.42371E+06
C:/temp/Job-41.odb,Step-1,Increment      1: Step Time =    1.000,"P-41-1",           387,       140.024,       118.278,            0.,NA,NA,"",   690.272E+03,  -649.623E+03,  -649.623E+03
C:/temp/Job-41.odb,Step-1,Increment      1: Step Time =    1.000,"P-41-1",           388,       137.679,       122.721,            0.,NA,NA,"",   516.916E+03,   22.9754E+03,   22.9754E+03
C:/temp/Job-41.odb,Step-1,Increment      1: Step Time =    1.000,"P-41-1",           389,       131.554,       130.665,            0.,NA,NA,"",   1.48977E+06,   1.47506E+06,   1.47506E+06
C:/temp/Job-41.odb,Step-1,Increment      1: Step Time =    1.000,"P-41-1",           390,       123.788,       137.015,            0.,NA,NA,"",   2.67739E+06,   2.72150E+06,   2.72150E+06
C:/temp/Job-41.odb,Step-1,Increment      1: Step Time =    1.000,"P-41-1",           391,       119.414,       139.486,            0.,NA,NA,"",   3.14264E+06,   3.19713E+06,   3.19713E+06
C:/temp/Job-41.odb,Step-1,Increment      1: Step Time =    1.000,"P-41-1",           392,       109.966,       142.857,            0.,NA,NA,"",   3.71996E+06,   3.78715E+06,   3.78715E+06
C:/temp/Job-41.odb,Step-1,Increment      1: Step Time =    1.000,"P-41-1",           393,       105.016,       143.713,            0.,NA,NA,"",   3.74000E+06,   3.82402E+06,   3.82402E+06
C:/temp/Job-41.odb,Step-1,Increment      1: Step Time =    1.000,"P-41-1",           394,          195.,            0.,            0.,NA,NA,"",   997.779E+03,   997.490E+03,   997.490E+03
C:/temp/Job-41.odb,Step-1,Increment      1: Step Time =    1.000,"P-41-1",           395,          185.,            0.,            0.,NA,NA,"",   990.517E+03,   990.740E+03,   990.740E+03
C:/temp/Job-41.odb,Step-1,Increment      1: Step Time =    1.000,"P-41-1",           396,          175.,            0.,            0.,NA,NA,"",   986.196E+03,   985.826E+03,   985.826E+03
C:/temp/Job-41.odb,Step-1,Increment      1: Step Time =    1.000,"P-41-1",           397,          165.,            0.,            0.,NA,NA,"",   972.404E+03,   971.579E+03,   971.579E+03
C:/temp/Job-41.odb,Step-1,Increment      1: Step Time =    1.000,"P-41-1",           398,          155.,            0.,            0.,NA,NA,"",   927.389E+03,   926.474E+03,   926.474E+03
C:/temp/Job-41.odb,Step-1,Increment      1: Step Time =    1.000,"P-41-1",           399,          145.,            0.,            0.,NA,NA,"",   842.923E+03,   841.948E+03,   841.948E+03
C:/temp/Job-41.odb,Step-1,Increment      1: Step Time =    1.000,"P-41-1",           400,          135.,            0.,            0.,NA,NA,"",   731.792E+03,   731.066E+03,   731.066E+03
C:/temp/Job-41.odb,Step-1,Increment      1: Step Time =    1.000,"P-41-1",           401,          125.,            0.,            0.,NA,NA,"",   619.065E+03,   619.844E+03,   619.844E+03
C:/temp/Job-41.odb,Step-1,Increment      1: Step Time =    1.000,"P-41-1",           402,          115.,            0.,            0.,NA,NA,"",   550.328E+03,   552.442E+03,   552.442E+03
C:/temp/Job-41.odb,Step-1,Increment      1: Step Time =    1.000,"P-41-1",           403,          105.,            0.,            0.,NA,NA,"",   559.438E+03,   562.785E+03,   562.785E+03
C:/temp/Job-41.odb,Step-1,Increment      1: Step Time =    1.000,"P-41-1",           404,           95.,            0.,            0.,NA,NA,"",   677.360E+03,   679.054E+03,   679.054E+03
C:/temp/Job-41.odb,Step-1,Increment      1: Step Time =    1.000,"P-41-1",           405,           85.,            0.,            0.,NA,NA,"",   883.304E+03,   882.523E+03,   882.523E+03
C:/temp/Job-41.odb,Step-1,Increment      1: Step Time =    1.000,"P-41-1",           406,           75.,            0.,            0.,NA,NA,"",   1.13084E+06,   1.12886E+06,   1.12886E+06
C:/temp/Job-41.odb,Step-1,Increment      1: Step Time =    1.000,"P-41-1",           407,           65.,            0.,            0.,NA,NA,"",   1.38003E+06,   1.37758E+06,   1.37758E+06
C:/temp/Job-41.odb,Step-1,Increment      1: Step Time =    1.000,"P-41-1",           408,           55.,            0.,            0.,NA,NA,"",   1.58945E+06,   1.58739E+06,   1.58739E+06
C:/temp/Job-41.odb,Step-1,Increment      1: Step Time =    1.000,"P-41-1",           409,           45.,            0.,            0.,NA,NA,"",   1.74311E+06,   1.74114E+06,   1.74114E+06
C:/temp/Job-41.odb,Step-1,Increment      1: Step Time =    1.000,"P-41-1",           410,           35.,            0.,            0.,NA,NA,"",   1.84278E+06,   1.84212E+06,   1.84212E+06
C:/temp/Job-41.odb,Step-1,Increment      1: Step Time =    1.000,"P-41-1",           411,           25.,            0.,            0.,NA,NA,"",   1.91462E+06,   1.91618E+06,   1.91618E+06
C:/temp/Job-41.odb,Step-1,Increment      1: Step Time =    1.000,"P-41-1",           412,           15.,            0.,            0.,NA,NA,"",   1.99500E+06,   2.00227E+06,   2.00227E+06
C:/temp/Job-41.odb,Step-1,Increment      1: Step Time =    1.000,"P-41-1",           413,            5.,            0.,            0.,NA,NA,"",   2.32682E+06,   2.37940E+06,   2.37940E+06
C:/temp/Job-41.odb,Step-1,Increment      1: Step Time =    1.000,"P-41-1",           414,          200.,          195.,            0.,NA,NA,"",   1.00075E+06,   999.498E+03,   999.498E+03
C:/temp/Job-41.odb,Step-1,Increment      1: Step Time =    1.000,"P-41-1",           415,          200.,          185.,            0.,NA,NA,"",   1.00514E+06,   1.00167E+06,   1.00167E+06
C:/temp/Job-41.odb,Step-1,Increment      1: Step Time =    1.000,"P-41-1",           416,          200.,          175.,            0.,NA,NA,"",   996.866E+03,   1.00337E+06,   1.00337E+06
C:/temp/Job-41.odb,Step-1,Increment      1: Step Time =    1.000,"P-41-1",           417,          200.,          165.,            0.,NA,NA,"",   967.129E+03,   1.00427E+06,   1.00427E+06
C:/temp/Job-41.odb,Step-1,Increment      1: Step Time =    1.000,"P-41-1",           418,          200.,          155.,            0.,NA,NA,"",   915.311E+03,   1.00464E+06,   1.00464E+06
C:/temp/Job-41.odb,Step-1,Increment      1: Step Time =    1.000,"P-41-1",           419,          200.,          145.,            0.,NA,NA,"",   877.798E+03,   1.00822E+06,   1.00822E+06
C:/temp/Job-41.odb,Step-1,Increment      1: Step Time =    1.000,"P-41-1",           420,          200.,          135.,            0.,NA,NA,"",   907.371E+03,   1.01902E+06,   1.01902E+06
C:/temp/Job-41.odb,Step-1,Increment      1: Step Time =    1.000,"P-41-1",           421,          200.,          125.,            0.,NA,NA,"",   1.02467E+06,   1.09645E+06,   1.09645E+06
C:/temp/Job-41.odb,Step-1,Increment      1: Step Time =    1.000,"P-41-1",           422,          200.,          115.,            0.,NA,NA,"",   1.17590E+06,   1.30144E+06,   1.30144E+06
C:/temp/Job-41.odb,Step-1,Increment      1: Step Time =    1.000,"P-41-1",           423,          200.,          105.,            0.,NA,NA,"",   1.28104E+06,   1.44726E+06,   1.44726E+06
C:/temp/Job-41.odb,Step-1,Increment      1: Step Time =    1.000,"P-41-1",           424,          200.,           95.,            0.,NA,NA,"",   1.27726E+06,   1.44227E+06,   1.44227E+06
C:/temp/Job-41.odb,Step-1,Increment      1: Step Time =    1.000,"P-41-1",           425,          200.,           85.,            0.,NA,NA,"",   1.17146E+06,   1.29575E+06,   1.29575E+06
C:/temp/Job-41.odb,Step-1,Increment      1: Step Time =    1.000,"P-41-1",           426,          200.,           75.,            0.,NA,NA,"",   1.02250E+06,   1.09644E+06,   1.09644E+06
C:/temp/Job-41.odb,Step-1,Increment      1: Step Time =    1.000,"P-41-1",           427,          200.,           65.,            0.,NA,NA,"",   907.041E+03,   1.02053E+06,   1.02053E+06
C:/temp/Job-41.odb,Step-1,Increment      1: Step Time =    1.000,"P-41-1",           428,          200.,           55.,            0.,NA,NA,"",   879.793E+03,   1.00997E+06,   1.00997E+06
C:/temp/Job-41.odb,Step-1,Increment      1: Step Time =    1.000,"P-41-1",           429,          200.,           45.,            0.,NA,NA,"",   919.095E+03,   1.00718E+06,   1.00718E+06
C:/temp/Job-41.odb,Step-1,Increment      1: Step Time =    1.000,"P-41-1",           430,          200.,           35.,            0.,NA,NA,"",   969.110E+03,   1.00571E+06,   1.00571E+06
C:/temp/Job-41.odb,Step-1,Increment      1: Step Time =    1.000,"P-41-1",           431,          200.,           25.,            0.,NA,NA,"",   1.00061E+06,   1.00544E+06,   1.00544E+06
C:/temp/Job-41.odb,Step-1,Increment      1: Step Time =    1.000,"P-41-1",           432,          200.,           15.,            0.,NA,NA,"",   1.00486E+06,   1.00145E+06,   1.00145E+06
C:/temp/Job-41.odb,Step-1,Increment      1: Step Time =    1.000,"P-41-1",           433,          200.,            5.,            0.,NA,NA,"",   1.00069E+06,   999.442E+03,   999.442E+03
C:/temp/Job-41.odb,Step-1,Increment      1: Step Time =    1.000,"P-41-1",           434,            5.,          200.,            0.,NA,NA,"",   2.32254E+06,   2.37601E+06,   2.37601E+06
C:/temp/Job-41.odb,Step-1,Increment      1: Step Time =    1.000,"P-41-1",           435,           15.,          200.,            0.,NA,NA,"",   1.99255E+06,   1.99933E+06,   1.99933E+06
C:/temp/Job-41.odb,Step-1,Increment      1: Step Time =    1.000,"P-41-1",           436,           25.,          200.,            0.,NA,NA,"",   1.91245E+06,   1.91349E+06,   1.91349E+06
C:/temp/Job-41.odb,Step-1,Increment      1: Step Time =    1.000,"P-41-1",           437,           35.,          200.,            0.,NA,NA,"",   1.84804E+06,   1.84730E+06,   1.84730E+06
C:/temp/Job-41.odb,Step-1,Increment      1: Step Time =    1.000,"P-41-1",           438,           45.,          200.,            0.,NA,NA,"",   1.74549E+06,   1.74438E+06,   1.74438E+06
C:/temp/Job-41.odb,Step-1,Increment      1: Step Time =    1.000,"P-41-1",           439,           55.,          200.,            0.,NA,NA,"",   1.58966E+06,   1.58782E+06,   1.58782E+06
C:/temp/Job-41.odb,Step-1,Increment      1: Step Time =    1.000,"P-41-1",           440,           65.,          200.,            0.,NA,NA,"",   1.37780E+06,   1.37540E+06,   1.37540E+06
C:/temp/Job-41.odb,Step-1,Increment      1: Step Time =    1.000,"P-41-1",           441,           75.,          200.,            0.,NA,NA,"",     1.128E+06,   1.12623E+06,   1.12623E+06
C:/temp/Job-41.odb,Step-1,Increment      1: Step Time =    1.000,"P-41-1",           442,           85.,          200.,            0.,NA,NA,"",   882.663E+03,   881.574E+03,   881.574E+03
C:/temp/Job-41.odb,Step-1,Increment      1: Step Time =    1.000,"P-41-1",           443,           95.,          200.,            0.,NA,NA,"",   674.296E+03,   676.024E+03,   676.024E+03
C:/temp/Job-41.odb,Step-1,Increment      1: Step Time =    1.000,"P-41-1",           444,          105.,          200.,            0.,NA,NA,"",   557.965E+03,   561.507E+03,   561.507E+03
C:/temp/Job-41.odb,Step-1,Increment      1: Step Time =    1.000,"P-41-1",           445,          115.,          200.,            0.,NA,NA,"",   552.692E+03,   554.974E+03,   554.974E+03
C:/temp/Job-41.odb,Step-1,Increment      1: Step Time =    1.000,"P-41-1",           446,          125.,          200.,            0.,NA,NA,"",   624.470E+03,   625.316E+03,   625.316E+03
C:/temp/Job-41.odb,Step-1,Increment      1: Step Time =    1.000,"P-41-1",           447,          135.,          200.,            0.,NA,NA,"",   739.619E+03,   738.854E+03,   738.854E+03
C:/temp/Job-41.odb,Step-1,Increment      1: Step Time =    1.000,"P-41-1",           448,          145.,          200.,            0.,NA,NA,"",   852.731E+03,   851.537E+03,   851.537E+03
C:/temp/Job-41.odb,Step-1,Increment      1: Step Time =    1.000,"P-41-1",           449,          155.,          200.,            0.,NA,NA,"",   936.358E+03,   934.957E+03,   934.957E+03
C:/temp/Job-41.odb,Step-1,Increment      1: Step Time =    1.000,"P-41-1",           450,          165.,          200.,            0.,NA,NA,"",   979.520E+03,   978.094E+03,   978.094E+03
C:/temp/Job-41.odb,Step-1,Increment      1: Step Time =    1.000,"P-41-1",           451,          175.,          200.,            0.,NA,NA,"",   989.427E+03,   989.162E+03,   989.162E+03
C:/temp/Job-41.odb,Step-1,Increment      1: Step Time =    1.000,"P-41-1",           452,          185.,          200.,            0.,NA,NA,"",   990.775E+03,   990.981E+03,   990.981E+03
C:/temp/Job-41.odb,Step-1,Increment      1: Step Time =    1.000,"P-41-1",           453,          195.,          200.,            0.,NA,NA,"",   997.781E+03,   997.523E+03,   997.523E+03
C:/temp/Job-41.odb,Step-1,Increment      1: Step Time =    1.000,"P-41-1",           454,            0.,            5.,            0.,NA,NA,"",   2.18733E+06,   2.33571E+06,   2.33571E+06
C:/temp/Job-41.odb,Step-1,Increment      1: Step Time =    1.000,"P-41-1",           455,            0.,           15.,            0.,NA,NA,"",   1.59012E+06,   1.75795E+06,   1.75795E+06
C:/temp/Job-41.odb,Step-1,Increment      1: Step Time =    1.000,"P-41-1",           456,            0.,           25.,            0.,NA,NA,"",   1.32650E+06,   1.47744E+06,   1.47744E+06
C:/temp/Job-41.odb,Step-1,Increment      1: Step Time =    1.000,"P-41-1",           457,            0.,           35.,            0.,NA,NA,"",   1.11745E+06,   1.24971E+06,   1.24971E+06
C:/temp/Job-41.odb,Step-1,Increment      1: Step Time =    1.000,"P-41-1",           458,            0.,           45.,            0.,NA,NA,"",   923.335E+03,   1.03425E+06,   1.03425E+06
C:/temp/Job-41.odb,Step-1,Increment      1: Step Time =    1.000,"P-41-1",           459,            0.,           55.,            0.,NA,NA,"",   742.408E+03,   829.211E+03,   829.211E+03
C:/temp/Job-41.odb,Step-1,Increment      1: Step Time =    1.000,"P-41-1",           460,            0.,           65.,            0.,NA,NA,"",   568.632E+03,   630.625E+03,   630.625E+03
C:/temp/Job-41.odb,Step-1,Increment      1: Step Time =    1.000,"P-41-1",           461,            0.,           75.,            0.,NA,NA,"",   406.082E+03,   446.886E+03,   446.886E+03
C:/temp/Job-41.odb,Step-1,Increment      1: Step Time =    1.000,"P-41-1",           462,            0.,           85.,            0.,NA,NA,"",   264.309E+03,   293.121E+03,   293.121E+03
C:/temp/Job-41.odb,Step-1,Increment      1: Step Time =    1.000,"P-41-1",           463,            0.,           95.,            0.,NA,NA,"",   163.214E+03,   187.174E+03,   187.174E+03
C:/temp/Job-41.odb,Step-1,Increment      1: Step Time =    1.000,"P-41-1",           464,            0.,          105.,            0.,NA,NA,"",   161.971E+03,   185.888E+03,   185.888E+03
C:/temp/Job-41.odb,Step-1,Increment      1: Step Time =    1.000,"P-41-1",           465,            0.,          115.,            0.,NA,NA,"",   262.210E+03,   291.105E+03,   291.105E+03
C:/temp/Job-41.odb,Step-1,Increment      1: Step Time =    1.000,"P-41-1",           466,            0.,          125.,            0.,NA,NA,"",   405.529E+03,   446.286E+03,   446.286E+03
C:/temp/Job-41.odb,Step-1,Increment      1: Step Time =    1.000,"P-41-1",           467,            0.,          135.,            0.,NA,NA,"",   570.328E+03,   632.174E+03,   632.174E+03
C:/temp/Job-41.odb,Step-1,Increment      1: Step Time =    1.000,"P-41-1",           468,            0.,          145.,            0.,NA,NA,"",   744.261E+03,   830.407E+03,   830.407E+03
C:/temp/Job-41.odb,Step-1,Increment      1: Step Time =    1.000,"P-41-1",           469,            0.,          155.,            0.,NA,NA,"",   927.037E+03,   1.03673E+06,   1.03673E+06
C:/temp/Job-41.odb,Step-1,Increment      1: Step Time =    1.000,"P-41-1",           470,            0.,          165.,            0.,NA,NA,"",   1.12313E+06,   1.25228E+06,   1.25228E+06
C:/temp/Job-41.odb,Step-1,Increment      1: Step Time =    1.000,"P-41-1",           471,            0.,          175.,            0.,NA,NA,"",   1.33901E+06,   1.49243E+06,   1.49243E+06
C:/temp/Job-41.odb,Step-1,Increment      1: Step Time =    1.000,"P-41-1",           472,            0.,          185.,            0.,NA,NA,"",   1.59119E+06,   1.75787E+06,   1.75787E+06
C:/temp/Job-41.odb,Step-1,Increment      1: Step Time =    1.000,"P-41-1",           473,            0.,          195.,            0.,NA,NA,"",   2.18193E+06,   2.32909E+06,   2.32909E+06
C:/temp/Job-41.odb,Step-1,Increment      1: Step Time =    1.000,"P-41-1",           474,       52.9723,       88.3050,            0.,NA,NA,"",   646.358E+03,  -661.470E+03,  -661.470E+03
C:/temp/Job-41.odb,Step-1,Increment      1: Step Time =    1.000,"P-41-1",           475,       102.751,       51.9014,            0.,NA,NA,"",   3.40055E+06,   3.51480E+06,   3.51480E+06
C:/temp/Job-41.odb,Step-1,Increment      1: Step Time =    1.000,"P-41-1",           476,       92.2010,       51.9135,            0.,NA,NA,"",   2.99242E+06,   3.08661E+06,   3.08661E+06
C:/temp/Job-41.odb,Step-1,Increment      1: Step Time =    1.000,"P-41-1",           477,       113.145,       53.3188,            0.,NA,NA,"",   3.22107E+06,   3.33312E+06,   3.33312E+06
C:/temp/Job-41.odb,Step-1,Increment      1: Step Time =    1.000,"P-41-1",           478,       194.890,       5.06909,            0.,NA,NA,"",   999.411E+03,   998.786E+03,   998.786E+03
C:/temp/Job-41.odb,Step-1,Increment      1: Step Time =    1.000,"P-41-1",           479,       164.253,       4.59848,            0.,NA,NA,"",   990.822E+03,   988.270E+03,   988.270E+03
C:/temp/Job-41.odb,Step-1,Increment      1: Step Time =    1.000,"P-41-1",           480,       174.418,       5.19612,            0.,NA,NA,"",   1.00062E+06,   999.526E+03,   999.526E+03
C:/temp/Job-41.odb,Step-1,Increment      1: Step Time =    1.000,"P-41-1",           481,       184.749,       5.06580,            0.,NA,NA,"",   996.764E+03,   997.328E+03,   997.328E+03
C:/temp/Job-41.odb,Step-1,Increment      1: Step Time =    1.000,"P-41-1",           482,       144.935,       195.222,            0.,NA,NA,"",   900.316E+03,   896.664E+03,   896.664E+03
C:/temp/Job-41.odb,Step-1,Increment      1: Step Time =    1.000,"P-41-1",           483,       135.168,       195.240,            0.,NA,NA,"",   810.409E+03,   808.070E+03,   808.070E+03
C:/temp/Job-41.odb,Step-1,Increment      1: Step Time =    1.000,"P-41-1",           484,       105.158,       5.00089,            0.,NA,NA,"",   673.397E+03,   682.064E+03,   682.064E+03
C:/temp/Job-41.odb,Step-1,Increment      1: Step Time =    1.000,"P-41-1",           485,       115.224,       5.13725,            0.,NA,NA,"",   661.378E+03,   668.191E+03,   668.191E+03
C:/temp/Job-41.odb,Step-1,Increment      1: Step Time =    1.000,"P-41-1",           486,       5.09688,       194.973,            0.,NA,NA,"",   2.15883E+06,   2.24403E+06,   2.24403E+06
C:/temp/Job-41.odb,Step-1,Increment      1: Step Time =    1.000,"P-41-1",           487,       35.8029,       195.064,            0.,NA,NA,"",   1.81617E+06,   1.81237E+06,   1.81237E+06
C:/temp/Job-41.odb,Step-1,Increment      1: Step Time =    1.000,"P-41-1",           488,       25.5611,       194.730,            0.,NA,NA,"",   1.88432E+06,   1.88392E+06,   1.88392E+06
C:/temp/Job-41.odb,Step-1,Increment      1: Step Time =    1.000,"P-41-1",           489,       15.2153,       195.036,            0.,NA,NA,"",   1.97046E+06,   1.98107E+06,   1.98107E+06
C:/temp/Job-41.odb,Step-1,Increment      1: Step Time =    1.000,"P-41-1",           490,       55.0754,       4.88137,            0.,NA,NA,"",   1.59048E+06,   1.58286E+06,   1.58286E+06
C:/temp/Job-41.odb,Step-1,Increment      1: Step Time =    1.000,"P-41-1",           491,       64.9324,       4.80607,            0.,NA,NA,"",   1.41011E+06,   1.40171E+06,   1.40171E+06
C:/temp/Job-41.odb,Step-1,Increment      1: Step Time =    1.000,"P-41-1",           492,       95.0002,       195.110,            0.,NA,NA,"",   783.640E+03,   787.554E+03,   787.554E+03
C:/temp/Job-41.odb,Step-1,Increment      1: Step Time =    1.000,"P-41-1",           493,       85.0094,       194.969,            0.,NA,NA,"",   977.644E+03,   974.036E+03,   974.036E+03
C:/temp/Job-41.odb,Step-1,Increment      1: Step Time =    1.000,"P-41-1",           494,       4.96305,       4.94971,            0.,NA,NA,"",   2.16552E+06,   2.25157E+06,   2.25157E+06
C:/temp/Job-41.odb,Step-1,Increment      1: Step Time =    1.000,"P-41-1",           495,       5.17168,       14.9050,            0.,NA,NA,"",   1.64240E+06,   1.78353E+06,   1.78353E+06
C:/temp/Job-41.odb,Step-1,Increment      1: Step Time =    1.000,"P-41-1",           496,       5.67358,       25.1530,            0.,NA,NA,"",   1.36695E+06,   1.49956E+06,   1.49956E+06
C:/temp/Job-41.odb,Step-1,Increment      1: Step Time =    1.000,"P-41-1",           497,       5.16369,       35.4657,            0.,NA,NA,"",   1.14092E+06,   1.26049E+06,   1.26049E+06
C:/temp/Job-41.odb,Step-1,Increment      1: Step Time =    1.000,"P-41-1",           498,       4.41883,       45.3788,            0.,NA,NA,"",   937.489E+03,   1.04084E+06,   1.04084E+06
C:/temp/Job-41.odb,Step-1,Increment      1: Step Time =    1.000,"P-41-1",           499,       4.23727,       55.1689,            0.,NA,NA,"",   750.314E+03,   832.705E+03,   832.705E+03
C:/temp/Job-41.odb,Step-1,Increment      1: Step Time =    1.000,"P-41-1",           500,       14.9285,       5.07940,            0.,NA,NA,"",   1.97022E+06,   1.98230E+06,   1.98230E+06
C:/temp/Job-41.odb,Step-1,Increment      1: Step Time =    1.000,"P-41-1",           501,       24.5953,       5.23342,            0.,NA,NA,"",   1.88722E+06,   1.88936E+06,   1.88936E+06
C:/temp/Job-41.odb,Step-1,Increment      1: Step Time =    1.000,"P-41-1",           502,       35.0851,       5.70991,            0.,NA,NA,"",   1.81279E+06,   1.80888E+06,   1.80888E+06
C:/temp/Job-41.odb,Step-1,Increment      1: Step Time =    1.000,"P-41-1",           503,       45.1711,       5.31739,            0.,NA,NA,"",   1.72329E+06,   1.71671E+06,   1.71671E+06
C:/temp/Job-41.odb,Step-1,Increment      1: Step Time =    1.000,"P-41-1",           504,       74.8843,       4.95639,            0.,NA,NA,"",   1.19835E+06,   1.19089E+06,   1.19089E+06
C:/temp/Job-41.odb,Step-1,Increment      1: Step Time =    1.000,"P-41-1",           505,       84.9919,       5.13676,            0.,NA,NA,"",   979.325E+03,   976.213E+03,   976.213E+03
C:/temp/Job-41.odb,Step-1,Increment      1: Step Time =    1.000,"P-41-1",           506,       95.0892,       4.97432,            0.,NA,NA,"",   785.835E+03,   789.868E+03,   789.868E+03
C:/temp/Job-41.odb,Step-1,Increment      1: Step Time =    1.000,"P-41-1",           507,       125.179,       4.79812,            0.,NA,NA,"",   713.426E+03,   715.361E+03,   715.361E+03
C:/temp/Job-41.odb,Step-1,Increment      1: Step Time =    1.000,"P-41-1",           508,       135.003,       4.41971,            0.,NA,NA,"",   797.774E+03,   795.680E+03,   795.680E+03
C:/temp/Job-41.odb,Step-1,Increment      1: Step Time =    1.000,"P-41-1",           509,       144.760,       4.13971,            0.,NA,NA,"",   884.305E+03,   881.336E+03,   881.336E+03
C:/temp/Job-41.odb,Step-1,Increment      1: Step Time =    1.000,"P-41-1",           510,       154.474,       4.03722,            0.,NA,NA,"",   951.110E+03,   948.297E+03,   948.297E+03
C:/temp/Job-41.odb,Step-1,Increment      1: Step Time =    1.000,"P-41-1",           511,       194.617,       15.1394,            0.,NA,NA,"",   1.00479E+06,   1.00474E+06,   1.00474E+06
C:/temp/Job-41.odb,Step-1,Increment      1: Step Time =    1.000,"P-41-1",           512,       194.790,       24.7932,            0.,NA,NA,"",   1.00064E+06,   1.01028E+06,   1.01028E+06
C:/temp/Job-41.odb,Step-1,Increment      1: Step Time =    1.000,"P-41-1",           513,       194.345,       35.1763,            0.,NA,NA,"",   981.952E+03,   1.02029E+06,   1.02029E+06
C:/temp/Job-41.odb,Step-1,Increment      1: Step Time =    1.000,"P-41-1",           514,       194.835,       45.2269,            0.,NA,NA,"",   942.247E+03,   1.02656E+06,   1.02656E+06
C:/temp/Job-41.odb,Step-1,Increment      1: Step Time =    1.000,"P-41-1",           515,       195.196,       55.0871,            0.,NA,NA,"",   909.817E+03,   1.03601E+06,   1.03601E+06
C:/temp/Job-41.odb,Step-1,Increment      1: Step Time =    1.000,"P-41-1",           516,       195.195,       64.8867,            0.,NA,NA,"",   926.578E+03,   1.05574E+06,   1.05574E+06
C:/temp/Job-41.odb,Step-1,Increment      1: Step Time =    1.000,"P-41-1",           517,       195.022,       74.7994,            0.,NA,NA,"",   1.00237E+06,   1.11104E+06,   1.11104E+06
C:/temp/Job-41.odb,Step-1,Increment      1: Step Time =    1.000,"P-41-1",           518,       194.752,       84.9281,            0.,NA,NA,"",   1.09679E+06,   1.21936E+06,   1.21936E+06
C:/temp/Job-41.odb,Step-1,Increment      1: Step Time =    1.000,"P-41-1",           519,       194.895,       95.0352,            0.,NA,NA,"",   1.16548E+06,   1.29353E+06,   1.29353E+06
C:/temp/Job-41.odb,Step-1,Increment      1: Step Time =    1.000,"P-41-1",           520,       195.055,       105.106,            0.,NA,NA,"",   1.17112E+06,   1.30138E+06,   1.30138E+06
C:/temp/Job-41.odb,Step-1,Increment      1: Step Time =    1.000,"P-41-1",           521,       194.983,       115.195,            0.,NA,NA,"",   1.10239E+06,   1.22512E+06,   1.22512E+06
C:/temp/Job-41.odb,Step-1,Increment      1: Step Time =    1.000,"P-41-1",           522,       195.238,       125.110,            0.,NA,NA,"",   1.00395E+06,   1.11047E+06,   1.11047E+06
C:/temp/Job-41.odb,Step-1,Increment      1: Step Time =    1.000,"P-41-1",           523,       195.594,       134.950,            0.,NA,NA,"",   923.926E+03,   1.05210E+06,   1.05210E+06
C:/temp/Job-41.odb,Step-1,Increment      1: Step Time =    1.000,"P-41-1",           524,       195.862,       144.724,            0.,NA,NA,"",   901.158E+03,   1.02948E+06,   1.02948E+06
C:/temp/Job-41.odb,Step-1,Increment      1: Step Time =    1.000,"P-41-1",           525,       195.899,       154.460,            0.,NA,NA,"",   929.620E+03,   1.01787E+06,   1.01787E+06
C:/temp/Job-41.odb,Step-1,Increment      1: Step Time =    1.000,"P-41-1",           526,       195.237,       164.324,            0.,NA,NA,"",   973.850E+03,   1.01485E+06,   1.01485E+06
C:/temp/Job-41.odb,Step-1,Increment      1: Step Time =    1.000,"P-41-1",           527,       154.801,       194.723,            0.,NA,NA,"",   970.740E+03,   966.235E+03,   966.235E+03
C:/temp/Job-41.odb,Step-1,Increment      1: Step Time =    1.000,"P-41-1",           528,       194.770,       174.481,            0.,NA,NA,"",   1.00034E+06,   1.01128E+06,   1.01128E+06
C:/temp/Job-41.odb,Step-1,Increment      1: Step Time =    1.000,"P-41-1",           529,       164.866,       194.078,            0.,NA,NA,"",   1.00476E+06,   1.00072E+06,   1.00072E+06
C:/temp/Job-41.odb,Step-1,Increment      1: Step Time =    1.000,"P-41-1",           530,       195.042,       184.785,            0.,NA,NA,"",   1.00495E+06,   1.00446E+06,   1.00446E+06
C:/temp/Job-41.odb,Step-1,Increment      1: Step Time =    1.000,"P-41-1",           531,       175.313,       194.501,            0.,NA,NA,"",   1.00155E+06,   1.00072E+06,   1.00072E+06
C:/temp/Job-41.odb,Step-1,Increment      1: Step Time =    1.000,"P-41-1",           532,       194.973,       194.902,            0.,NA,NA,"",   999.431E+03,   998.811E+03,   998.811E+03
C:/temp/Job-41.odb,Step-1,Increment      1: Step Time =    1.000,"P-41-1",           533,       184.951,       194.538,            0.,NA,NA,"",   997.799E+03,   998.496E+03,   998.496E+03
C:/temp/Job-41.odb,Step-1,Increment      1: Step Time =    1.000,"P-41-1",           534,       125.236,       195.008,            0.,NA,NA,"",   721.610E+03,   723.572E+03,   723.572E+03
C:/temp/Job-41.odb,Step-1,Increment      1: Step Time =    1.000,"P-41-1",           535,       115.077,       194.741,            0.,NA,NA,"",   665.567E+03,   672.736E+03,   672.736E+03
C:/temp/Job-41.odb,Step-1,Increment      1: Step Time =    1.000,"P-41-1",           536,       104.999,       194.956,            0.,NA,NA,"",   673.508E+03,   682.547E+03,   682.547E+03
C:/temp/Job-41.odb,Step-1,Increment      1: Step Time =    1.000,"P-41-1",           537,       75.1392,       195.174,            0.,NA,NA,"",   1.19136E+06,   1.18447E+06,   1.18447E+06
C:/temp/Job-41.odb,Step-1,Increment      1: Step Time =    1.000,"P-41-1",           538,       65.2263,       195.508,            0.,NA,NA,"",   1.40318E+06,   1.39539E+06,   1.39539E+06
C:/temp/Job-41.odb,Step-1,Increment      1: Step Time =    1.000,"P-41-1",           539,       55.3768,       195.701,            0.,NA,NA,"",   1.58652E+06,   1.58018E+06,   1.58018E+06
C:/temp/Job-41.odb,Step-1,Increment      1: Step Time =    1.000,"P-41-1",           540,       45.6545,       195.666,            0.,NA,NA,"",   1.72492E+06,   1.72013E+06,   1.72013E+06
C:/temp/Job-41.odb,Step-1,Increment      1: Step Time =    1.000,"P-41-1",           541,       5.46334,       184.950,            0.,NA,NA,"",   1.64130E+06,   1.78036E+06,   1.78036E+06
C:/temp/Job-41.odb,Step-1,Increment      1: Step Time =    1.000,"P-41-1",           542,       5.49637,       175.319,            0.,NA,NA,"",   1.37798E+06,   1.51323E+06,   1.51323E+06
C:/temp/Job-41.odb,Step-1,Increment      1: Step Time =    1.000,"P-41-1",           543,       5.87777,       164.866,            0.,NA,NA,"",   1.15079E+06,   1.26734E+06,   1.26734E+06
C:/temp/Job-41.odb,Step-1,Increment      1: Step Time =    1.000,"P-41-1",           544,       5.30052,       154.774,            0.,NA,NA,"",   946.567E+03,   1.04679E+06,   1.04679E+06
C:/temp/Job-41.odb,Step-1,Increment      1: Step Time =    1.000,"P-41-1",           545,       4.84599,       144.919,            0.,NA,NA,"",   754.130E+03,   835.177E+03,   835.177E+03
C:/temp/Job-41.odb,Step-1,Increment      1: Step Time =    1.000,"P-41-1",           546,       4.75340,       135.075,            0.,NA,NA,"",   571.431E+03,   631.874E+03,   631.874E+03
C:/temp/Job-41.odb,Step-1,Increment      1: Step Time =    1.000,"P-41-1",           547,       4.93057,       125.099,            0.,NA,NA,"",   398.460E+03,   440.932E+03,   440.932E+03
C:/temp/Job-41.odb,Step-1,Increment      1: Step Time =    1.000,"P-41-1",           548,       5.15774,       114.999,            0.,NA,NA,"",   250.972E+03,   282.225E+03,   282.225E+03
C:/temp/Job-41.odb,Step-1,Increment      1: Step Time =    1.000,"P-41-1",           549,       4.96461,       104.901,            0.,NA,NA,"",   155.247E+03,   175.946E+03,   175.946E+03
C:/temp/Job-41.odb,Step-1,Increment      1: Step Time =    1.000,"P-41-1",           550,       4.92574,       94.8441,            0.,NA,NA,"",   157.045E+03,   178.515E+03,   178.515E+03
C:/temp/Job-41.odb,Step-1,Increment      1: Step Time =    1.000,"P-41-1",           551,       5.07338,       84.7878,            0.,NA,NA,"",   254.390E+03,   285.844E+03,   285.844E+03
C:/temp/Job-41.odb,Step-1,Increment      1: Step Time =    1.000,"P-41-1",           552,       4.78318,       74.8044,            0.,NA,NA,"",   400.233E+03,   442.949E+03,   442.949E+03
C:/temp/Job-41.odb,Step-1,Increment      1: Step Time =    1.000,"P-41-1",           553,       4.41687,       64.9567,            0.,NA,NA,"",   569.254E+03,   630.133E+03,   630.133E+03
C:/temp/Job-41.odb,Step-1,Increment      1: Step Time =    1.000,"P-41-1",           554,       189.828,       5.07058,            0.,NA,NA,"",   997.279E+03,   997.640E+03,   997.640E+03
C:/temp/Job-41.odb,Step-1,Increment      1: Step Time =    1.000,"P-41-1",           555,       179.612,       5.09568,            0.,NA,NA,"",   998.399E+03,   998.339E+03,   998.339E+03
C:/temp/Job-41.odb,Step-1,Increment      1: Step Time =    1.000,"P-41-1",           556,       169.239,       5.15908,            0.,NA,NA,"",   999.467E+03,   997.431E+03,   997.431E+03
C:/temp/Job-41.odb,Step-1,Increment      1: Step Time =    1.000,"P-41-1",           557,       159.321,       4.18226,            0.,NA,NA,"",   974.253E+03,   971.583E+03,   971.583E+03
C:/temp/Job-41.odb,Step-1,Increment      1: Step Time =    1.000,"P-41-1",           558,       149.627,       4.04335,            0.,NA,NA,"",   921.170E+03,   918.151E+03,   918.151E+03
C:/temp/Job-41.odb,Step-1,Increment      1: Step Time =    1.000,"P-41-1",           559,       139.883,       4.26550,            0.,NA,NA,"",   842.179E+03,   839.548E+03,   839.548E+03
C:/temp/Job-41.odb,Step-1,Increment      1: Step Time =    1.000,"P-41-1",           560,       130.106,       4.59296,            0.,NA,NA,"",   754.007E+03,   753.052E+03,   753.052E+03
C:/temp/Job-41.odb,Step-1,Increment      1: Step Time =    1.000,"P-41-1",           561,       120.199,       5.00728,            0.,NA,NA,"",   681.244E+03,   686.122E+03,   686.122E+03
C:/temp/Job-41.odb,Step-1,Increment      1: Step Time =    1.000,"P-41-1",           562,       110.212,       5.10310,            0.,NA,NA,"",   656.333E+03,   665.079E+03,   665.079E+03
C:/temp/Job-41.odb,Step-1,Increment      1: Step Time =    1.000,"P-41-1",           563,       100.120,       4.94690,            0.,NA,NA,"",   716.846E+03,   723.270E+03,   723.270E+03
C:/temp/Job-41.odb,Step-1,Increment      1: Step Time =    1.000,"P-41-1",           564,       90.0417,       5.07147,            0.,NA,NA,"",   876.550E+03,   877.263E+03,   877.263E+03
C:/temp/Job-41.odb,Step-1,Increment      1: Step Time =    1.000,"P-41-1",           565,       79.9384,       5.07595,            0.,NA,NA,"",   1.08737E+06,   1.08178E+06,   1.08178E+06
C:/temp/Job-41.odb,Step-1,Increment      1: Step Time =    1.000,"P-41-1",           566,       69.8844,       4.85827,            0.,NA,NA,"",   1.30728E+06,   1.29872E+06,   1.29872E+06
C:/temp/Job-41.odb,Step-1,Increment      1: Step Time =    1.000,"P-41-1",           567,       60.0043,       4.81009,            0.,NA,NA,"",   1.50539E+06,   1.49732E+06,   1.49732E+06
C:/temp/Job-41.odb,Step-1,Increment      1: Step Time =    1.000,"P-41-1",           568,       50.1365,       5.04285,            0.,NA,NA,"",   1.66305E+06,   1.65597E+06,   1.65597E+06
C:/temp/Job-41.odb,Step-1,Increment      1: Step Time =    1.000,"P-41-1",           569,       40.2123,       5.61172,            0.,NA,NA,"",   1.77261E+06,   1.76686E+06,   1.76686E+06
C:/temp/Job-41.odb,Step-1,Increment      1: Step Time =    1.000,"P-41-1",           570,       29.4400,       6.38182,            0.,NA,NA,"",   1.84346E+06,   1.84271E+06,   1.84271E+06
C:/temp/Job-41.odb,Step-1,Increment      1: Step Time =    1.000,"P-41-1",           571,       19.8182,       5.36916,            0.,NA,NA,"",   1.92402E+06,   1.92712E+06,   1.92712E+06
C:/temp/Job-41.odb,Step-1,Increment      1: Step Time =    1.000,"P-41-1",           572,       9.90205,       4.92643,            0.,NA,NA,"",   2.07078E+06,   2.09184E+06,   2.09184E+06
C:/temp/Job-41.odb,Step-1,Increment      1: Step Time =    1.000,"P-41-1",           573,       195.015,       189.853,            0.,NA,NA,"",   1.00267E+06,   1.00151E+06,   1.00151E+06
C:/temp/Job-41.odb,Step-1,Increment      1: Step Time =    1.000,"P-41-1",           574,       194.968,       179.662,            0.,NA,NA,"",   1.00482E+06,   1.00778E+06,   1.00778E+06
C:/temp/Job-41.odb,Step-1,Increment      1: Step Time =    1.000,"P-41-1",           575,       194.690,       169.337,            0.,NA,NA,"",   990.462E+03,   1.01397E+06,   1.01397E+06
C:/temp/Job-41.odb,Step-1,Increment      1: Step Time =    1.000,"P-41-1",           576,       195.694,       159.339,            0.,NA,NA,"",   951.732E+03,   1.01521E+06,   1.01521E+06
C:/temp/Job-41.odb,Step-1,Increment      1: Step Time =    1.000,"P-41-1",           577,       195.928,       149.592,            0.,NA,NA,"",   911.330E+03,   1.02278E+06,   1.02278E+06
C:/temp/Job-41.odb,Step-1,Increment      1: Step Time =    1.000,"P-41-1",           578,       195.746,       139.844,            0.,NA,NA,"",   904.316E+03,   1.03890E+06,   1.03890E+06
C:/temp/Job-41.odb,Step-1,Increment      1: Step Time =    1.000,"P-41-1",           579,       195.428,       130.044,            0.,NA,NA,"",   958.931E+03,   1.07256E+06,   1.07256E+06
C:/temp/Job-41.odb,Step-1,Increment      1: Step Time =    1.000,"P-41-1",           580,       195.076,       120.146,            0.,NA,NA,"",   1.05396E+06,   1.16714E+06,   1.16714E+06
C:/temp/Job-41.odb,Step-1,Increment      1: Step Time =    1.000,"P-41-1",           581,       195.019,       110.179,            0.,NA,NA,"",   1.14301E+06,   1.27162E+06,   1.27162E+06
C:/temp/Job-41.odb,Step-1,Increment      1: Step Time =    1.000,"P-41-1",           582,       195.003,       100.056,            0.,NA,NA,"",   1.17930E+06,   1.30845E+06,   1.30845E+06
C:/temp/Job-41.odb,Step-1,Increment      1: Step Time =    1.000,"P-41-1",           583,       194.776,       89.9877,            0.,NA,NA,"",   1.13610E+06,   1.26283E+06,   1.26283E+06
C:/temp/Job-41.odb,Step-1,Increment      1: Step Time =    1.000,"P-41-1",           584,       194.865,       79.8571,            0.,NA,NA,"",   1.05042E+06,    1.1647E+06,    1.1647E+06
C:/temp/Job-41.odb,Step-1,Increment      1: Step Time =    1.000,"P-41-1",           585,       195.133,       69.8187,            0.,NA,NA,"",   958.960E+03,   1.07482E+06,   1.07482E+06
C:/temp/Job-41.odb,Step-1,Increment      1: Step Time =    1.000,"P-41-1",           586,       195.225,       59.9828,            0.,NA,NA,"",   910.331E+03,   1.04428E+06,   1.04428E+06
C:/temp/Job-41.odb,Step-1,Increment      1: Step Time =    1.000,"P-41-1",           587,       195.091,       50.1811,            0.,NA,NA,"",   922.083E+03,   1.03022E+06,   1.03022E+06
C:/temp/Job-41.odb,Step-1,Increment      1: Step Time =    1.000,"P-41-1",           588,       194.510,       40.3017,            0.,NA,NA,"",   963.148E+03,   1.02321E+06,   1.02321E+06
C:/temp/Job-41.odb,Step-1,Increment      1: Step Time =    1.000,"P-41-1",           589,       193.629,       29.6385,            0.,NA,NA,"",   998.203E+03,   1.01888E+06,   1.01888E+06
C:/temp/Job-41.odb,Step-1,Increment      1: Step Time =    1.000,"P-41-1",           590,       194.529,       20.1155,            0.,NA,NA,"",   1.00414E+06,   1.00733E+06,   1.00733E+06
C:/temp/Job-41.odb,Step-1,Increment      1: Step Time =    1.000,"P-41-1",           591,       194.776,       10.0908,            0.,NA,NA,"",   1.00270E+06,   1.00167E+06,   1.00167E+06
C:/temp/Job-41.odb,Step-1,Increment      1: Step Time =    1.000,"P-41-1",           592,       10.1471,       195.013,            0.,NA,NA,"",   2.06455E+06,   2.08416E+06,   2.08416E+06
C:/temp/Job-41.odb,Step-1,Increment      1: Step Time =    1.000,"P-41-1",           593,       20.3500,       194.953,            0.,NA,NA,"",   1.92524E+06,   1.92792E+06,   1.92792E+06
C:/temp/Job-41.odb,Step-1,Increment      1: Step Time =    1.000,"P-41-1",           594,       30.7624,       194.606,            0.,NA,NA,"",   1.84920E+06,   1.84723E+06,   1.84723E+06
C:/temp/Job-41.odb,Step-1,Increment      1: Step Time =    1.000,"P-41-1",           595,       40.7817,       195.462,            0.,NA,NA,"",   1.77617E+06,   1.77188E+06,   1.77188E+06
C:/temp/Job-41.odb,Step-1,Increment      1: Step Time =    1.000,"P-41-1",           596,       50.5054,       195.718,            0.,NA,NA,"",   1.66196E+06,   1.65628E+06,   1.65628E+06
C:/temp/Job-41.odb,Step-1,Increment      1: Step Time =    1.000,"P-41-1",           597,       60.2860,       195.627,            0.,NA,NA,"",   1.49987E+06,   1.49270E+06,   1.49270E+06
C:/temp/Job-41.odb,Step-1,Increment      1: Step Time =    1.000,"P-41-1",           598,       70.1760,       195.353,            0.,NA,NA,"",   1.29954E+06,   1.29158E+06,   1.29158E+06
C:/temp/Job-41.odb,Step-1,Increment      1: Step Time =    1.000,"P-41-1",           599,       80.0974,       195.029,            0.,NA,NA,"",   1.08298E+06,   1.07739E+06,   1.07739E+06
C:/temp/Job-41.odb,Step-1,Increment      1: Step Time =    1.000,"P-41-1",           600,       89.9574,       195.042,            0.,NA,NA,"",   875.658E+03,   875.888E+03,   875.888E+03
C:/temp/Job-41.odb,Step-1,Increment      1: Step Time =    1.000,"P-41-1",           601,       100.021,       195.077,            0.,NA,NA,"",   714.400E+03,   721.170E+03,   721.170E+03
C:/temp/Job-41.odb,Step-1,Increment      1: Step Time =    1.000,"P-41-1",           602,       110.014,       194.806,            0.,NA,NA,"",   659.116E+03,   668.025E+03,   668.025E+03
C:/temp/Job-41.odb,Step-1,Increment      1: Step Time =    1.000,"P-41-1",           603,       120.156,       194.840,            0.,NA,NA,"",   687.255E+03,   692.376E+03,   692.376E+03
C:/temp/Job-41.odb,Step-1,Increment      1: Step Time =    1.000,"P-41-1",           604,       130.240,       195.150,            0.,NA,NA,"",   764.235E+03,   763.282E+03,   763.282E+03
C:/temp/Job-41.odb,Step-1,Increment      1: Step Time =    1.000,"P-41-1",           605,       140.047,       195.279,            0.,NA,NA,"",   856.743E+03,   853.667E+03,   853.667E+03
C:/temp/Job-41.odb,Step-1,Increment      1: Step Time =    1.000,"P-41-1",           606,       149.853,       195.059,            0.,NA,NA,"",   939.167E+03,   935.039E+03,   935.039E+03
C:/temp/Job-41.odb,Step-1,Increment      1: Step Time =    1.000,"P-41-1",           607,       159.725,       194.324,            0.,NA,NA,"",   992.223E+03,   987.795E+03,   987.795E+03
C:/temp/Job-41.odb,Step-1,Increment      1: Step Time =    1.000,"P-41-1",           608,       170.466,       193.270,            0.,NA,NA,"",   1.01229E+06,   1.00918E+06,   1.00918E+06
C:/temp/Job-41.odb,Step-1,Increment      1: Step Time =    1.000,"P-41-1",           609,       179.999,       194.336,            0.,NA,NA,"",   999.308E+03,   999.799E+03,   999.799E+03
C:/temp/Job-41.odb,Step-1,Increment      1: Step Time =    1.000,"P-41-1",           610,       189.981,       194.767,            0.,NA,NA,"",   997.531E+03,   997.853E+03,   997.853E+03
C:/temp/Job-41.odb,Step-1,Increment      1: Step Time =    1.000,"P-41-1",           611,       4.96827,       9.87941,            0.,NA,NA,"",   1.85943E+06,   1.99084E+06,   1.99084E+06
C:/temp/Job-41.odb,Step-1,Increment      1: Step Time =    1.000,"P-41-1",           612,       5.58739,       19.9350,            0.,NA,NA,"",   1.49816E+06,   1.63575E+06,   1.63575E+06
C:/temp/Job-41.odb,Step-1,Increment      1: Step Time =    1.000,"P-41-1",           613,       5.65154,       30.3819,            0.,NA,NA,"",   1.25165E+06,   1.37762E+06,   1.37762E+06
C:/temp/Job-41.odb,Step-1,Increment      1: Step Time =    1.000,"P-41-1",           614,       4.71949,       40.4590,            0.,NA,NA,"",   1.03566E+06,   1.14784E+06,   1.14784E+06
C:/temp/Job-41.odb,Step-1,Increment      1: Step Time =    1.000,"P-41-1",           615,       4.27680,       50.2722,            0.,NA,NA,"",   843.211E+03,   936.413E+03,   936.413E+03
C:/temp/Job-41.odb,Step-1,Increment      1: Step Time =    1.000,"P-41-1",           616,       4.29022,       60.0647,            0.,NA,NA,"",   658.762E+03,   730.192E+03,   730.192E+03
C:/temp/Job-41.odb,Step-1,Increment      1: Step Time =    1.000,"P-41-1",           617,       4.58305,       69.8599,            0.,NA,NA,"",   482.954E+03,   534.090E+03,   534.090E+03
C:/temp/Job-41.odb,Step-1,Increment      1: Step Time =    1.000,"P-41-1",           618,       4.96598,       79.8049,            0.,NA,NA,"",   322.470E+03,   358.665E+03,   358.665E+03
C:/temp/Job-41.odb,Step-1,Increment      1: Step Time =    1.000,"P-41-1",           619,       5.02122,       89.8101,            0.,NA,NA,"",   198.019E+03,   225.372E+03,   225.372E+03
C:/temp/Job-41.odb,Step-1,Increment      1: Step Time =    1.000,"P-41-1",           620,       4.90252,       99.8679,            0.,NA,NA,"",   140.987E+03,   158.075E+03,   158.075E+03
C:/temp/Job-41.odb,Step-1,Increment      1: Step Time =    1.000,"P-41-1",           621,       5.09015,       109.956,            0.,NA,NA,"",   194.971E+03,   222.021E+03,   222.021E+03
C:/temp/Job-41.odb,Step-1,Increment      1: Step Time =    1.000,"P-41-1",           622,       5.08003,       120.039,            0.,NA,NA,"",   319.397E+03,   355.418E+03,   355.418E+03
C:/temp/Job-41.odb,Step-1,Increment      1: Step Time =    1.000,"P-41-1",           623,       4.81064,       130.113,            0.,NA,NA,"",   483.436E+03,   534.253E+03,   534.253E+03
C:/temp/Job-41.odb,Step-1,Increment      1: Step Time =    1.000,"P-41-1",           624,       4.76525,       140.003,            0.,NA,NA,"",   661.745E+03,   732.466E+03,   732.466E+03
C:/temp/Job-41.odb,Step-1,Increment      1: Step Time =    1.000,"P-41-1",           625,       5.01110,       149.831,            0.,NA,NA,"",   848.600E+03,   939.614E+03,   939.614E+03
C:/temp/Job-41.odb,Step-1,Increment      1: Step Time =    1.000,"P-41-1",           626,       5.65507,       159.717,            0.,NA,NA,"",   1.04532E+06,   1.15405E+06,   1.15405E+06
C:/temp/Job-41.odb,Step-1,Increment      1: Step Time =    1.000,"P-41-1",           627,       6.70630,       170.478,            0.,NA,NA,"",   1.28694E+06,   1.40792E+06,   1.40792E+06
C:/temp/Job-41.odb,Step-1,Increment      1: Step Time =    1.000,"P-41-1",           628,       5.66830,       180.003,            0.,NA,NA,"",   1.49938E+06,   1.63774E+06,   1.63774E+06
C:/temp/Job-41.odb,Step-1,Increment      1: Step Time =    1.000,"P-41-1",           629,       5.23313,       189.980,            0.,NA,NA,"",   1.85403E+06,   1.98242E+06,   1.98242E+06
C:/temp/Job-41.odb,Step-1,Increment      1: Step Time =    1.000,"P-41-1",           630,       66.5803,       136.731,            0.,NA,NA,"",   1.03927E+06,   966.020E+03,   966.020E+03
C:/temp/Job-41.odb,Step-1,Increment      1: Step Time =    1.000,"P-41-1",           631,       61.2493,       128.767,            0.,NA,NA,"",   464.296E+03,   40.6176E+03,   40.6176E+03
C:/temp/Job-41.odb,Step-1,Increment      1: Step Time =    1.000,"P-41-1",           632,       139.882,       128.970,            0.,NA,NA,"",   1.09642E+06,   939.269E+03,   939.269E+03
C:/temp/Job-41.odb,Step-1,Increment      1: Step Time =    1.000,"P-41-1",           633,       75.0321,       144.315,            0.,NA,NA,"",   1.79758E+06,   1.78812E+06,   1.78812E+06
C:/temp/Job-41.odb,Step-1,Increment      1: Step Time =    1.000,"P-41-1",           634,       131.916,       62.6042,            0.,NA,NA,"",   1.86365E+06,   1.85511E+06,   1.85511E+06
C:/temp/Job-41.odb,Step-1,Increment      1: Step Time =    1.000,"P-41-1",           635,       59.9059,       72.6043,            0.,NA,NA,"",   470.607E+03,  -101.440E+03,  -101.440E+03
C:/temp/Job-41.odb,Step-1,Increment      1: Step Time =    1.000,"P-41-1",           636,       74.6029,       56.6630,            0.,NA,NA,"",   1.76115E+06,   1.75527E+06,   1.75527E+06
C:/temp/Job-41.odb,Step-1,Increment      1: Step Time =    1.000,"P-41-1",           637,       127.750,       59.5675,            0.,NA,NA,"",   2.25069E+06,   2.29130E+06,   2.29130E+06
C:/temp/Job-41.odb,Step-1,Increment      1: Step Time =    1.000,"P-41-1",           638,       63.1934,       68.5200,            0.,NA,NA,"",   574.768E+03,   384.828E+03,   384.828E+03
C:/temp/Job-41.odb,Step-1,Increment      1: Step Time =    1.000,"P-41-1",           639,       58.5819,       124.479,            0.,NA,NA,"",   461.202E+03,  -380.675E+03,  -380.675E+03
C:/temp/Job-41.odb,Step-1,Increment      1: Step Time =    1.000,"P-41-1",           640,       80.6120,       54.7331,            0.,NA,NA,"",   2.21835E+06,   2.25969E+06,   2.25969E+06
C:/temp/Job-41.odb,Step-1,Increment      1: Step Time =    1.000,"P-41-1",           641,       133.080,       138.095,            0.,NA,NA,"",   1.84102E+06,   1.81179E+06,   1.81179E+06
C:/temp/Job-41.odb,Step-1,Increment      1: Step Time =    1.000,"P-41-1",           642,       125.124,       141.247,            0.,NA,NA,"",   2.49310E+06,   2.55178E+06,   2.55178E+06
C:/temp/Job-41.odb,Step-1,Increment      1: Step Time =    1.000,"P-41-1",           643,       129.152,       139.007,            0.,NA,NA,"",   2.11197E+06,   2.13225E+06,   2.13225E+06
C:/temp/Job-41.odb,Step-1,Increment      1: Step Time =    1.000,"P-41-1",           644,       141.846,       124.482,            0.,NA,NA,"",   810.946E+03,   105.208E+03,   105.208E+03
C:/temp/Job-41.odb,Step-1,Increment      1: Step Time =    1.000,"P-41-1",           645,       140.374,       70.2266,            0.,NA,NA,"",   1.20926E+06,   1.03270E+06,   1.03270E+06
C:/temp/Job-41.odb,Step-1,Increment      1: Step Time =    1.000,"P-41-1",           646,       66.7820,       64.7510,            0.,NA,NA,"",   871.044E+03,   809.643E+03,   809.643E+03
C:/temp/Job-41.odb,Step-1,Increment      1: Step Time =    1.000,"P-41-1",           647,       123.175,       57.0653,            0.,NA,NA,"",   2.63202E+06,   2.70610E+06,   2.70610E+06
C:/temp/Job-41.odb,Step-1,Increment      1: Step Time =    1.000,"P-41-1",           648,       135.981,       64.9469,            0.,NA,NA,"",   1.58142E+06,   1.51027E+06,   1.51027E+06
C:/temp/Job-41.odb,Step-1,Increment      1: Step Time =    1.000,"P-41-1",           649,       141.408,       74.0676,            0.,NA,NA,"",   897.656E+03,   546.555E+03,   546.555E+03
C:/temp/Job-41.odb,Step-1,Increment      1: Step Time =    1.000,"P-41-1",           650,       147.052,       110.282,            0.,NA,NA,"",   1.19614E+06,  -1.18120E+06,  -1.18120E+06
C:/temp/Job-41.odb,Step-1,Increment      1: Step Time =    1.000,"P-41-1",           651,       70.5779,       61.0801,            0.,NA,NA,"",   1.28651E+06,   1.25807E+06,   1.25807E+06
C:/temp/Job-41.odb,Step-1,Increment      1: Step Time =    1.000,"P-41-1",           652,       68.5504,       140.383,            0.,NA,NA,"",   1.36607E+06,   1.30535E+06,   1.30535E+06
C:/temp/Job-41.odb,Step-1,Increment      1: Step Time =    1.000,"P-41-1",           653,       146.732,       87.8677,            0.,NA,NA,"",   1.11468E+06,  -1.08549E+06,  -1.08549E+06
C:/temp/Job-41.odb,Step-1,Increment      1: Step Time =    1.000,"P-41-1",           654,       138.389,       133.221,            0.,NA,NA,"",   1.45302E+06,   1.33629E+06,   1.33629E+06
C:/temp/Job-41.odb,Step-1,Increment      1: Step Time =    1.000,"P-41-1",           655,       56.7626,       77.0857,            0.,NA,NA,"",   502.837E+03,  -431.797E+03,  -431.797E+03
C:/temp/Job-41.odb,Step-1,Increment      1: Step Time =    1.000,"P-41-1",           656,       79.4757,       144.990,            0.,NA,NA,"",   2.10799E+06,   2.13135E+06,   2.13135E+06
C:/temp/Job-41.odb,Step-1,Increment      1: Step Time =    1.000,"P-41-1",           657,       63.9714,       132.843,            0.,NA,NA,"",   669.462E+03,   572.235E+03,   572.235E+03
C:/temp/Job-41.odb,Step-1,Increment      1: Step Time =    1.000,"P-41-1",           658,       150.156,       99.2950,            0.,NA,NA,"",   1.12568E+06,  -1.14882E+06,  -1.14882E+06
C:/temp/Job-41.odb,Step-1,Increment      1: Step Time =    1.000,"P-41-1",           659,       120.656,       143.312,            0.,NA,NA,"",   2.87116E+06,   2.95202E+06,   2.95202E+06
C:/temp/Job-41.odb,Step-1,Increment      1: Step Time =    1.000,"P-41-1",           660,       46.1924,       114.125,            0.,NA,NA,"",   353.895E+03,  -333.102E+03,  -333.102E+03
C:/temp/Job-41.odb,Step-1,Increment      1: Step Time =    1.000,"P-41-1",           661,       151.172,       112.268,            0.,NA,NA,"",   948.590E+03,  -815.779E+03,  -815.779E+03
C:/temp/Job-41.odb,Step-1,Increment      1: Step Time =    1.000,"P-41-1",           662,       62.7646,       142.408,            0.,NA,NA,"",   1.41144E+06,   1.26635E+06,   1.26635E+06
C:/temp/Job-41.odb,Step-1,Increment      1: Step Time =    1.000,"P-41-1",           663,       48.4108,       93.4976,            0.,NA,NA,"",   471.596E+03,  -501.106E+03,  -501.106E+03
C:/temp/Job-41.odb,Step-1,Increment      1: Step Time =    1.000,"P-41-1",           664,       152.784,       91.5536,            0.,NA,NA,"",   842.790E+03,  -769.363E+03,  -769.363E+03
C:/temp/Job-41.odb,Step-1,Increment      1: Step Time =    1.000,"P-41-1",           665,       121.787,       147.538,            0.,NA,NA,"",   2.44007E+06,   2.54907E+06,   2.54907E+06
C:/temp/Job-41.odb,Step-1,Increment      1: Step Time =    1.000,"P-41-1",           666,       78.8718,       150.325,            0.,NA,NA,"",   2.07038E+06,   2.08212E+06,   2.08212E+06
C:/temp/Job-41.odb,Step-1,Increment      1: Step Time =    1.000,"P-41-1",           667,       97.8821,       47.5810,            0.,NA,NA,"",   2.64419E+06,   2.79857E+06,   2.79857E+06
C:/temp/Job-41.odb,Step-1,Increment      1: Step Time =    1.000,"P-41-1",           668,       92.8452,       46.9768,            0.,NA,NA,"",   2.48560E+06,   2.61874E+06,   2.61874E+06
C:/temp/Job-41.odb,Step-1,Increment      1: Step Time =    1.000,"P-41-1",           669,       108.242,       47.4589,            0.,NA,NA,"",   2.62261E+06,   2.79251E+06,   2.79251E+06
C:/temp/Job-41.odb,Step-1,Increment      1: Step Time =    1.000,"P-41-1",           670,       139.880,       8.63394,            0.,NA,NA,"",   952.889E+03,   946.051E+03,   946.051E+03
C:/temp/Job-41.odb,Step-1,Increment      1: Step Time =    1.000,"P-41-1",           671,       130.392,       9.25069,            0.,NA,NA,"",   909.187E+03,   908.121E+03,   908.121E+03
C:/temp/Job-41.odb,Step-1,Increment      1: Step Time =    1.000,"P-41-1",           672,       120.593,       10.1087,            0.,NA,NA,"",   878.860E+03,   892.771E+03,   892.771E+03
C:/temp/Job-41.odb,Step-1,Increment      1: Step Time =    1.000,"P-41-1",           673,       110.348,       10.2507,            0.,NA,NA,"",   866.985E+03,   891.154E+03,   891.154E+03
C:/temp/Job-41.odb,Step-1,Increment      1: Step Time =    1.000,"P-41-1",           674,       90.1960,       10.1112,            0.,NA,NA,"",   1.07001E+06,   1.07391E+06,   1.07391E+06
C:/temp/Job-41.odb,Step-1,Increment      1: Step Time =    1.000,"P-41-1",           675,       79.7834,       10.1390,            0.,NA,NA,"",   1.25292E+06,   1.23896E+06,   1.23896E+06
C:/temp/Job-41.odb,Step-1,Increment      1: Step Time =    1.000,"P-41-1",           676,       69.7018,       9.70988,            0.,NA,NA,"",   1.40905E+06,   1.38678E+06,   1.38678E+06
C:/temp/Job-41.odb,Step-1,Increment      1: Step Time =    1.000,"P-41-1",           677,       60.0400,       9.63592,            0.,NA,NA,"",   1.54662E+06,   1.52379E+06,   1.52379E+06
C:/temp/Job-41.odb,Step-1,Increment      1: Step Time =    1.000,"P-41-1",           678,       191.407,       139.773,            0.,NA,NA,"",   966.611E+03,   1.09604E+06,   1.09604E+06
C:/temp/Job-41.odb,Step-1,Increment      1: Step Time =    1.000,"P-41-1",           679,       190.812,       130.231,            0.,NA,NA,"",   985.750E+03,   1.12946E+06,   1.12946E+06
C:/temp/Job-41.odb,Step-1,Increment      1: Step Time =    1.000,"P-41-1",           680,       190.060,       120.417,            0.,NA,NA,"",   992.324E+03,   1.13351E+06,   1.13351E+06
C:/temp/Job-41.odb,Step-1,Increment      1: Step Time =    1.000,"P-41-1",           681,       190.110,       110.311,            0.,NA,NA,"",   985.060E+03,   1.09700E+06,   1.09700E+06
C:/temp/Job-41.odb,Step-1,Increment      1: Step Time =    1.000,"P-41-1",           682,       190.075,       100.200,            0.,NA,NA,"",   977.971E+03,   1.04249E+06,   1.04249E+06
C:/temp/Job-41.odb,Step-1,Increment      1: Step Time =    1.000,"P-41-1",           683,       189.483,       90.0515,            0.,NA,NA,"",   970.410E+03,   1.08103E+06,   1.08103E+06
C:/temp/Job-41.odb,Step-1,Increment      1: Step Time =    1.000,"P-41-1",           684,       189.770,       79.5583,            0.,NA,NA,"",   990.231E+03,   1.13227E+06,   1.13227E+06
C:/temp/Job-41.odb,Step-1,Increment      1: Step Time =    1.000,"P-41-1",           685,       190.268,       69.5617,            0.,NA,NA,"",   989.924E+03,   1.13219E+06,   1.13219E+06
C:/temp/Job-41.odb,Step-1,Increment      1: Step Time =    1.000,"P-41-1",           686,       190.418,       59.9683,            0.,NA,NA,"",   983.940E+03,   1.10747E+06,   1.10747E+06
C:/temp/Job-41.odb,Step-1,Increment      1: Step Time =    1.000,"P-41-1",           687,       60.5298,       191.198,            0.,NA,NA,"",   1.53218E+06,   1.51218E+06,   1.51218E+06
C:/temp/Job-41.odb,Step-1,Increment      1: Step Time =    1.000,"P-41-1",           688,       70.2381,       190.702,            0.,NA,NA,"",   1.39425E+06,   1.37350E+06,   1.37350E+06
C:/temp/Job-41.odb,Step-1,Increment      1: Step Time =    1.000,"P-41-1",           689,       80.1227,       189.904,            0.,NA,NA,"",   1.24620E+06,   1.23285E+06,   1.23285E+06
C:/temp/Job-41.odb,Step-1,Increment      1: Step Time =    1.000,"P-41-1",           690,       90.0081,       190.103,            0.,NA,NA,"",   1.07020E+06,   1.07208E+06,   1.07208E+06
C:/temp/Job-41.odb,Step-1,Increment      1: Step Time =    1.000,"P-41-1",           691,       109.910,       189.551,            0.,NA,NA,"",   873.225E+03,   898.405E+03,   898.405E+03
C:/temp/Job-41.odb,Step-1,Increment      1: Step Time =    1.000,"P-41-1",           692,       120.467,       189.714,            0.,NA,NA,"",   886.261E+03,   900.425E+03,   900.425E+03
C:/temp/Job-41.odb,Step-1,Increment      1: Step Time =    1.000,"P-41-1",           693,       130.603,       190.311,            0.,NA,NA,"",   925.145E+03,   924.005E+03,   924.005E+03
C:/temp/Job-41.odb,Step-1,Increment      1: Step Time =    1.000,"P-41-1",           694,       140.097,       190.548,            0.,NA,NA,"",   976.403E+03,   968.336E+03,   968.336E+03
C:/temp/Job-41.odb,Step-1,Increment      1: Step Time =    1.000,"P-41-1",           695,       9.17829,       69.5351,            0.,NA,NA,"",   485.135E+03,   535.339E+03,   535.339E+03
C:/temp/Job-41.odb,Step-1,Increment      1: Step Time =    1.000,"P-41-1",           696,       9.97681,       79.4308,            0.,NA,NA,"",   313.161E+03,   351.770E+03,   351.770E+03
C:/temp/Job-41.odb,Step-1,Increment      1: Step Time =    1.000,"P-41-1",           697,       10.0479,       89.6914,            0.,NA,NA,"",   184.920E+03,   212.741E+03,   212.741E+03
C:/temp/Job-41.odb,Step-1,Increment      1: Step Time =    1.000,"P-41-1",           698,       9.71692,       99.6996,            0.,NA,NA,"",   135.871E+03,   149.405E+03,   149.405E+03
C:/temp/Job-41.odb,Step-1,Increment      1: Step Time =    1.000,"P-41-1",           699,       10.1994,       109.790,            0.,NA,NA,"",   180.084E+03,   207.209E+03,   207.209E+03
C:/temp/Job-41.odb,Step-1,Increment      1: Step Time =    1.000,"P-41-1",           700,       10.1862,       120.194,            0.,NA,NA,"",   305.950E+03,   343.993E+03,   343.993E+03
C:/temp/Job-41.odb,Step-1,Increment      1: Step Time =    1.000,"P-41-1",           701,       9.58694,       130.302,            0.,NA,NA,"",   484.453E+03,   533.614E+03,   533.614E+03
C:/temp/Job-41.odb,Step-1,Increment      1: Step Time =    1.000,"P-41-1",           702,       9.55339,       139.968,            0.,NA,NA,"",   677.323E+03,   739.634E+03,   739.634E+03
C:/temp/Job-41.odb,Step-1,Increment      1: Step Time =    1.000,"P-41-1",           703,       100.233,       9.79381,            0.,NA,NA,"",   916.311E+03,   934.428E+03,   934.428E+03
C:/temp/Job-41.odb,Step-1,Increment      1: Step Time =    1.000,"P-41-1",           704,       99.9813,       190.221,            0.,NA,NA,"",   916.403E+03,   935.604E+03,   935.604E+03
C:/temp/Job-41.odb,Step-1,Increment      1: Step Time =    1.000,"P-41-1",           705,       8.61047,       60.0594,            0.,NA,NA,"",   672.606E+03,   736.844E+03,   736.844E+03
C:/temp/Job-41.odb,Step-1,Increment      1: Step Time =    1.000,"P-41-1",           706,       143.173,       78.3365,            0.,NA,NA,"",   778.282E+03,  -221.020E+03,  -221.020E+03
C:/temp/Job-41.odb,Step-1,Increment      1: Step Time =    1.000,"P-41-1",           707,       143.855,       119.866,            0.,NA,NA,"",   820.732E+03,  -650.674E+03,  -650.674E+03
C:/temp/Job-41.odb,Step-1,Increment      1: Step Time =    1.000,"P-41-1",           708,       143.828,       134.860,            0.,NA,NA,"",   1.64230E+06,   1.39627E+06,   1.39627E+06
C:/temp/Job-41.odb,Step-1,Increment      1: Step Time =    1.000,"P-41-1",           709,       59.0987,       134.672,            0.,NA,NA,"",   961.012E+03,   783.967E+03,   783.967E+03
C:/temp/Job-41.odb,Step-1,Increment      1: Step Time =    1.000,"P-41-1",           710,       49.6437,       77.9692,            0.,NA,NA,"",   479.294E+03,  -172.878E+03,  -172.878E+03
C:/temp/Job-41.odb,Step-1,Increment      1: Step Time =    1.000,"P-41-1",           711,       133.892,       58.4016,            0.,NA,NA,"",   1.95033E+06,   1.90302E+06,   1.90302E+06
C:/temp/Job-41.odb,Step-1,Increment      1: Step Time =    1.000,"P-41-1",           712,       55.9959,       69.7250,            0.,NA,NA,"",   725.874E+03,   352.349E+03,   352.349E+03
C:/temp/Job-41.odb,Step-1,Increment      1: Step Time =    1.000,"P-41-1",           713,       133.151,       143.524,            0.,NA,NA,"",   2.02277E+06,   1.99021E+06,   1.99021E+06
C:/temp/Job-41.odb,Step-1,Increment      1: Step Time =    1.000,"P-41-1",           714,       129.910,       142.919,            0.,NA,NA,"",   2.10185E+06,   2.12003E+06,   2.12003E+06
C:/temp/Job-41.odb,Step-1,Increment      1: Step Time =    1.000,"P-41-1",           715,       68.9794,       54.7698,            0.,NA,NA,"",   1.64417E+06,   1.56052E+06,   1.56052E+06
C:/temp/Job-41.odb,Step-1,Increment      1: Step Time =    1.000,"P-41-1",           716,       69.4408,       145.085,            0.,NA,NA,"",   1.62675E+06,   1.56141E+06,   1.56141E+06
C:/temp/Job-41.odb,Step-1,Increment      1: Step Time =    1.000,"P-41-1",           717,       144.940,       70.1613,            0.,NA,NA,"",   1.42351E+06,   1.10952E+06,   1.10952E+06
C:/temp/Job-41.odb,Step-1,Increment      1: Step Time =    1.000,"P-41-1",           718,       60.0729,       14.4694,            0.,NA,NA,"",   1.60433E+06,   1.56250E+06,   1.56250E+06
C:/temp/Job-41.odb,Step-1,Increment      1: Step Time =    1.000,"P-41-1",           719,       12.9062,       59.9861,            0.,NA,NA,"",   698.029E+03,   751.339E+03,   751.339E+03
C:/temp/Job-41.odb,Step-1,Increment      1: Step Time =    1.000,"P-41-1",           720,       185.578,       59.9201,            0.,NA,NA,"",   1.08272E+06,   1.16845E+06,   1.16845E+06
C:/temp/Job-41.odb,Step-1,Increment      1: Step Time =    1.000,"P-41-1",           721,       60.7787,       186.734,            0.,NA,NA,"",   1.58284E+06,   1.54590E+06,   1.54590E+06
C:/temp/Job-41.odb,Step-1,Increment      1: Step Time =    1.000,"P-41-1",           722,       140.023,       13.0909,            0.,NA,NA,"",   1.07040E+06,   1.05829E+06,   1.05829E+06
C:/temp/Job-41.odb,Step-1,Increment      1: Step Time =    1.000,"P-41-1",           723,       14.3657,       139.895,            0.,NA,NA,"",   702.312E+03,   751.699E+03,   751.699E+03
C:/temp/Job-41.odb,Step-1,Increment      1: Step Time =    1.000,"P-41-1",           724,       186.986,       139.780,            0.,NA,NA,"",   1.05149E+06,   1.15260E+06,   1.15260E+06
C:/temp/Job-41.odb,Step-1,Increment      1: Step Time =    1.000,"P-41-1",           725,       140.226,       185.820,            0.,NA,NA,"",   1.10029E+06,   1.08630E+06,   1.08630E+06
C:/temp/Job-41.odb,Step-1,Increment      1: Step Time =    1.000,"P-41-1",           726,       69.6348,       150.242,            0.,NA,NA,"",   1.81646E+06,   1.73367E+06,   1.73367E+06
C:/temp/Job-41.odb,Step-1,Increment      1: Step Time =    1.000,"P-41-1",           727,       130.040,       152.202,            0.,NA,NA,"",   2.00958E+06,   2.02866E+06,   2.02866E+06
C:/temp/Job-41.odb,Step-1,Increment      1: Step Time =    1.000,"P-41-1",           728,       148.178,       121.526,            0.,NA,NA,"",   1.09075E+06,  -269.451E+03,  -269.451E+03
C:/temp/Job-41.odb,Step-1,Increment      1: Step Time =    1.000,"P-41-1",           729,       45.9566,       120.570,            0.,NA,NA,"",   434.952E+03,  -17.2047E+03,  -17.2047E+03
C:/temp/Job-41.odb,Step-1,Increment      1: Step Time =    1.000,"P-41-1",           730,       149.945,       117.027,            0.,NA,NA,"",   1.00420E+06,  -744.657E+03,  -744.657E+03
C:/temp/Job-41.odb,Step-1,Increment      1: Step Time =    1.000,"P-41-1",           731,       13.7693,       68.9873,            0.,NA,NA,"",   502.965E+03,   547.654E+03,   547.654E+03
C:/temp/Job-41.odb,Step-1,Increment      1: Step Time =    1.000,"P-41-1",           732,       69.4605,       14.5598,            0.,NA,NA,"",   1.51578E+06,   1.47767E+06,   1.47767E+06
C:/temp/Job-41.odb,Step-1,Increment      1: Step Time =    1.000,"P-41-1",           733,       14.3107,       130.563,            0.,NA,NA,"",   499.096E+03,   541.500E+03,   541.500E+03
C:/temp/Job-41.odb,Step-1,Increment      1: Step Time =    1.000,"P-41-1",           734,       130.871,       13.9897,            0.,NA,NA,"",   1.05538E+06,   1.05587E+06,   1.05587E+06
C:/temp/Job-41.odb,Step-1,Increment      1: Step Time =    1.000,"P-41-1",           735,       70.1782,       186.120,            0.,NA,NA,"",   1.49412E+06,   1.45903E+06,   1.45903E+06
C:/temp/Job-41.odb,Step-1,Increment      1: Step Time =    1.000,"P-41-1",           736,       185.393,       69.2472,            0.,NA,NA,"",   1.05936E+06,   1.17221E+06,   1.17221E+06
C:/temp/Job-41.odb,Step-1,Increment      1: Step Time =    1.000,"P-41-1",           737,       186.178,       130.562,            0.,NA,NA,"",   1.04887E+06,   1.16960E+06,   1.16960E+06
C:/temp/Job-41.odb,Step-1,Increment      1: Step Time =    1.000,"P-41-1",           738,       131.089,       185.478,            0.,NA,NA,"",   1.07329E+06,   1.07358E+06,   1.07358E+06
C:/temp/Job-41.odb,Step-1,Increment      1: Step Time =    1.000,"P-41-1",           739,       47.8589,       98.0346,            0.,NA,NA,"",   472.212E+03,  -506.293E+03,  -506.293E+03
C:/temp/Job-41.odb,Step-1,Increment      1: Step Time =    1.000,"P-41-1",           740,       151.006,       86.6269,            0.,NA,NA,"",   953.338E+03,  -794.317E+03,  -794.317E+03
C:/temp/Job-41.odb,Step-1,Increment      1: Step Time =    1.000,"P-41-1",           741,       118.419,       153.454,            0.,NA,NA,"",   2.22637E+06,   2.36522E+06,   2.36522E+06
C:/temp/Job-41.odb,Step-1,Increment      1: Step Time =    1.000,"P-41-1",           742,       83.3989,       150.957,            0.,NA,NA,"",   2.24183E+06,   2.29880E+06,   2.29880E+06
C:/temp/Job-41.odb,Step-1,Increment      1: Step Time =    1.000,"P-41-1",           743,       102.832,       47.2586,            0.,NA,NA,"",   2.67646E+06,   2.84357E+06,   2.84357E+06
C:/temp/Job-41.odb,Step-1,Increment      1: Step Time =    1.000,"P-41-1",           744,       87.9646,       46.0338,            0.,NA,NA,"",   2.28133E+06,   2.38273E+06,   2.38273E+06
C:/temp/Job-41.odb,Step-1,Increment      1: Step Time =    1.000,"P-41-1",           745,       14.8596,       78.6651,            0.,NA,NA,"",   321.146E+03,   357.392E+03,   357.392E+03
C:/temp/Job-41.odb,Step-1,Increment      1: Step Time =    1.000,"P-41-1",           746,       79.3623,       15.0420,            0.,NA,NA,"",   1.40515E+06,   1.38355E+06,   1.38355E+06
C:/temp/Job-41.odb,Step-1,Increment      1: Step Time =    1.000,"P-41-1",           747,       15.2018,       120.683,            0.,NA,NA,"",   309.082E+03,   343.900E+03,   343.900E+03
C:/temp/Job-41.odb,Step-1,Increment      1: Step Time =    1.000,"P-41-1",           748,       121.407,       15.1416,            0.,NA,NA,"",   1.04958E+06,   1.07440E+06,   1.07440E+06
C:/temp/Job-41.odb,Step-1,Increment      1: Step Time =    1.000,"P-41-1",           749,       185.039,       120.972,            0.,NA,NA,"",   990.251E+03,   1.12301E+06,   1.12301E+06
C:/temp/Job-41.odb,Step-1,Increment      1: Step Time =    1.000,"P-41-1",           750,       79.8730,       184.692,            0.,NA,NA,"",   1.40369E+06,   1.38349E+06,   1.38349E+06
C:/temp/Job-41.odb,Step-1,Increment      1: Step Time =    1.000,"P-41-1",           751,       184.919,       78.9081,            0.,NA,NA,"",   990.464E+03,   1.12392E+06,   1.12392E+06
C:/temp/Job-41.odb,Step-1,Increment      1: Step Time =    1.000,"P-41-1",           752,       121.145,       184.784,            0.,NA,NA,"",   1.05388E+06,   1.07931E+06,   1.07931E+06
C:/temp/Job-41.odb,Step-1,Increment      1: Step Time =    1.000,"P-41-1",           753,       137.536,       144.328,            0.,NA,NA,"",   1.93355E+06,   1.83644E+06,   1.83644E+06
C:/temp/Job-41.odb,Step-1,Increment      1: Step Time =    1.000,"P-41-1",           754,       57.6115,       144.069,            0.,NA,NA,"",   1.41893E+06,   1.24908E+06,   1.24908E+06
C:/temp/Job-41.odb,Step-1,Increment      1: Step Time =    1.000,"P-41-1",           755,       143.092,       139.766,            0.,NA,NA,"",   1.78553E+06,   1.58623E+06,   1.58623E+06
C:/temp/Job-41.odb,Step-1,Increment      1: Step Time =    1.000,"P-41-1",           756,       56.0249,       140.266,            0.,NA,NA,"",   1.24902E+06,   1.06761E+06,   1.06761E+06
C:/temp/Job-41.odb,Step-1,Increment      1: Step Time =    1.000,"P-41-1",           757,       155.004,       103.335,            0.,NA,NA,"",   664.285E+03,  -628.411E+03,  -628.411E+03
C:/temp/Job-41.odb,Step-1,Increment      1: Step Time =    1.000,"P-41-1",           758,       66.4444,       58.3694,            0.,NA,NA,"",   1.43106E+06,   1.32807E+06,   1.32807E+06
C:/temp/Job-41.odb,Step-1,Increment      1: Step Time =    1.000,"P-41-1",           759,       141.241,       65.9322,            0.,NA,NA,"",   1.53611E+06,   1.35452E+06,   1.35452E+06
C:/temp/Job-41.odb,Step-1,Increment      1: Step Time =    1.000,"P-41-1",           760,       147.492,       66.7937,            0.,NA,NA,"",   1.59886E+06,   1.29715E+06,   1.29715E+06
C:/temp/Job-41.odb,Step-1,Increment      1: Step Time =    1.000,"P-41-1",           761,       110.133,       15.3029,            0.,NA,NA,"",   1.04000E+06,   1.08455E+06,   1.08455E+06
C:/temp/Job-41.odb,Step-1,Increment      1: Step Time =    1.000,"P-41-1",           762,       14.8928,       89.8883,            0.,NA,NA,"",   174.096E+03,   200.339E+03,   200.339E+03
C:/temp/Job-41.odb,Step-1,Increment      1: Step Time =    1.000,"P-41-1",           763,       90.6598,       14.9813,            0.,NA,NA,"",   1.22735E+06,   1.24192E+06,   1.24192E+06
C:/temp/Job-41.odb,Step-1,Increment      1: Step Time =    1.000,"P-41-1",           764,       15.2118,       109.270,            0.,NA,NA,"",   166.249E+03,   191.200E+03,   191.200E+03
C:/temp/Job-41.odb,Step-1,Increment      1: Step Time =    1.000,"P-41-1",           765,       90.4596,       185.467,            0.,NA,NA,"",   1.21766E+06,   1.22680E+06,   1.22680E+06
C:/temp/Job-41.odb,Step-1,Increment      1: Step Time =    1.000,"P-41-1",           766,       185.541,       110.140,            0.,NA,NA,"",   881.205E+03,   1.00147E+06,   1.00147E+06
C:/temp/Job-41.odb,Step-1,Increment      1: Step Time =    1.000,"P-41-1",           767,       184.157,       90.3293,            0.,NA,NA,"",   850.887E+03,   968.207E+03,   968.207E+03
C:/temp/Job-41.odb,Step-1,Increment      1: Step Time =    1.000,"P-41-1",           768,       109.510,       184.313,            0.,NA,NA,"",   1.05628E+06,   1.10461E+06,   1.10461E+06
C:/temp/Job-41.odb,Step-1,Increment      1: Step Time =    1.000,"P-41-1",           769,       14.4339,       99.4697,            0.,NA,NA,"",   133.216E+03,   150.746E+03,   150.746E+03
C:/temp/Job-41.odb,Step-1,Increment      1: Step Time =    1.000,"P-41-1",           770,       100.331,       14.5306,            0.,NA,NA,"",   1.08105E+06,   1.11660E+06,   1.11660E+06
C:/temp/Job-41.odb,Step-1,Increment      1: Step Time =    1.000,"P-41-1",           771,       185.220,       100.560,            0.,NA,NA,"",   818.154E+03,   870.976E+03,   870.976E+03
C:/temp/Job-41.odb,Step-1,Increment      1: Step Time =    1.000,"P-41-1",           772,       99.7535,       185.459,            0.,NA,NA,"",   1.08805E+06,   1.12561E+06,   1.12561E+06
C:/temp/Job-41.odb,Step-1,Increment      1: Step Time =    1.000,"P-41-1",           773,       42.9227,       86.1125,            0.,NA,NA,"",   292.100E+03,  -250.523E+03,  -250.523E+03
C:/temp/Job-41.odb,Step-1,Increment      1: Step Time =    1.000,"P-41-1",           774,       142.551,       145.091,            0.,NA,NA,"",   1.87367E+06,   1.71335E+06,   1.71335E+06
C:/temp/Job-41.odb,Step-1,Increment      1: Step Time =    1.000,"P-41-1",           775,       52.8688,       145.602,            0.,NA,NA,"",   1.40081E+06,   1.23054E+06,   1.23054E+06
C:/temp/Job-41.odb,Step-1,Increment      1: Step Time =    1.000,"P-41-1",           776,       152.675,       123.475,            0.,NA,NA,"",   1.30625E+06,   549.443E+03,   549.443E+03
C:/temp/Job-41.odb,Step-1,Increment      1: Step Time =    1.000,"P-41-1",           777,       59.2635,       58.5505,            0.,NA,NA,"",   1.35141E+06,   1.18131E+06,   1.18131E+06
C:/temp/Job-41.odb,Step-1,Increment      1: Step Time =    1.000,"P-41-1",           778,       156.543,       109.784,            0.,NA,NA,"",   733.688E+03,  -532.862E+03,  -532.862E+03
C:/temp/Job-41.odb,Step-1,Increment      1: Step Time =    1.000,"P-41-1",           779,       64.7395,       14.5085,            0.,NA,NA,"",   1.56330E+06,   1.52217E+06,   1.52217E+06
C:/temp/Job-41.odb,Step-1,Increment      1: Step Time =    1.000,"P-41-1",           780,       13.2925,       64.4325,            0.,NA,NA,"",   598.510E+03,   647.205E+03,   647.205E+03
C:/temp/Job-41.odb,Step-1,Increment      1: Step Time =    1.000,"P-41-1",           781,       185.489,       64.5675,            0.,NA,NA,"",   1.07572E+06,   1.17502E+06,   1.17502E+06
C:/temp/Job-41.odb,Step-1,Increment      1: Step Time =    1.000,"P-41-1",           782,       65.4728,       186.532,            0.,NA,NA,"",   1.53923E+06,   1.50233E+06,   1.50233E+06
C:/temp/Job-41.odb,Step-1,Increment      1: Step Time =    1.000,"P-41-1",           783,       135.459,       13.5408,            0.,NA,NA,"",   1.06415E+06,   1.05744E+06,   1.05744E+06
C:/temp/Job-41.odb,Step-1,Increment      1: Step Time =    1.000,"P-41-1",           784,       14.2858,       135.247,            0.,NA,NA,"",   599.142E+03,   645.112E+03,   645.112E+03
C:/temp/Job-41.odb,Step-1,Increment      1: Step Time =    1.000,"P-41-1",           785,       135.775,       185.608,            0.,NA,NA,"",   1.08864E+06,   1.08043E+06,   1.08043E+06
C:/temp/Job-41.odb,Step-1,Increment      1: Step Time =    1.000,"P-41-1",           786,       186.607,       135.179,            0.,NA,NA,"",   1.05469E+06,   1.16594E+06,   1.16594E+06
C:/temp/Job-41.odb,Step-1,Increment      1: Step Time =    1.000,"P-41-1",           787,       131.768,       148.064,            0.,NA,NA,"",   2.04222E+06,   2.03381E+06,   2.03381E+06
C:/temp/Job-41.odb,Step-1,Increment      1: Step Time =    1.000,"P-41-1",           788,       126.139,       154.470,            0.,NA,NA,"",   2.00640E+06,   2.06800E+06,   2.06800E+06
C:/temp/Job-41.odb,Step-1,Increment      1: Step Time =    1.000,"P-41-1",           789,       69.5006,       155.337,            0.,NA,NA,"",   1.88445E+06,   1.79335E+06,   1.79335E+06
C:/temp/Job-41.odb,Step-1,Increment      1: Step Time =    1.000,"P-41-1",           790,       157.102,       89.7832,            0.,NA,NA,"",   747.975E+03,  -73.5373E+03,  -73.5373E+03
C:/temp/Job-41.odb,Step-1,Increment      1: Step Time =    1.000,"P-41-1",           791,       152.750,       107.484,            0.,NA,NA,"",   842.436E+03,  -786.923E+03,  -786.923E+03
C:/temp/Job-41.odb,Step-1,Increment      1: Step Time =    1.000,"P-41-1",           792,       48.2857,       88.9392,            0.,NA,NA,"",   422.819E+03,  -437.885E+03,  -437.885E+03
C:/temp/Job-41.odb,Step-1,Increment      1: Step Time =    1.000,"P-41-1",           793,       154.015,       80.5632,            0.,NA,NA,"",   1.15539E+06,   396.550E+03,   396.550E+03
C:/temp/Job-41.odb,Step-1,Increment      1: Step Time =    1.000,"P-41-1",           794,       52.1312,       122.051,            0.,NA,NA,"",   495.149E+03,  -382.841E+03,  -382.841E+03
C:/temp/Job-41.odb,Step-1,Increment      1: Step Time =    1.000,"P-41-1",           795,       14.5736,       125.743,            0.,NA,NA,"",   401.976E+03,   440.765E+03,   440.765E+03
C:/temp/Job-41.odb,Step-1,Increment      1: Step Time =    1.000,"P-41-1",           796,       126.270,       14.4547,            0.,NA,NA,"",   1.04724E+06,   1.05765E+06,   1.05765E+06
C:/temp/Job-41.odb,Step-1,Increment      1: Step Time =    1.000,"P-41-1",           797,       14.2110,       73.7039,            0.,NA,NA,"",   410.560E+03,   451.205E+03,   451.205E+03
C:/temp/Job-41.odb,Step-1,Increment      1: Step Time =    1.000,"P-41-1",           798,       74.3030,       14.6764,            0.,NA,NA,"",   1.46133E+06,   1.42930E+06,   1.42930E+06
C:/temp/Job-41.odb,Step-1,Increment      1: Step Time =    1.000,"P-41-1",           799,       185.682,       125.880,            0.,NA,NA,"",   1.03004E+06,   1.15867E+06,   1.15867E+06
C:/temp/Job-41.odb,Step-1,Increment      1: Step Time =    1.000,"P-41-1",           800,       185.267,       73.9908,            0.,NA,NA,"",   1.03207E+06,   1.15772E+06,   1.15772E+06
C:/temp/Job-41.odb,Step-1,Increment      1: Step Time =    1.000,"P-41-1",           801,       74.9531,       185.515,            0.,NA,NA,"",   1.45012E+06,   1.41971E+06,   1.41971E+06
C:/temp/Job-41.odb,Step-1,Increment      1: Step Time =    1.000,"P-41-1",           802,       126.240,       185.309,            0.,NA,NA,"",   1.05782E+06,   1.06930E+06,   1.06930E+06
C:/temp/Job-41.odb,Step-1,Increment      1: Step Time =    1.000,"P-41-1",           803,       51.9545,       98.5732,            0.,NA,NA,"",   729.399E+03,  -753.442E+03,  -753.442E+03
C:/temp/Job-41.odb,Step-1,Increment      1: Step Time =    1.000,"P-41-1",           804,       122.512,       151.881,            0.,NA,NA,"",   2.17662E+06,   2.28042E+06,   2.28042E+06
C:/temp/Job-41.odb,Step-1,Increment      1: Step Time =    1.000,"P-41-1",           805,       112.508,       151.041,            0.,NA,NA,"",   2.66345E+06,   2.82134E+06,   2.82134E+06
C:/temp/Job-41.odb,Step-1,Increment      1: Step Time =    1.000,"P-41-1",           806,       78.3285,       155.533,            0.,NA,NA,"",   2.02970E+06,   2.02201E+06,   2.02201E+06
C:/temp/Job-41.odb,Step-1,Increment      1: Step Time =    1.000,"P-41-1",           807,       88.0329,       151.885,            0.,NA,NA,"",   2.40955E+06,   2.50865E+06,   2.50865E+06
C:/temp/Job-41.odb,Step-1,Increment      1: Step Time =    1.000,"P-41-1",           808,       98.0189,       43.9391,            0.,NA,NA,"",   2.30265E+06,   2.46681E+06,   2.46681E+06
C:/temp/Job-41.odb,Step-1,Increment      1: Step Time =    1.000,"P-41-1",           809,       16.1818,       84.1654,            0.,NA,NA,"",   235.081E+03,   265.194E+03,   265.194E+03
C:/temp/Job-41.odb,Step-1,Increment      1: Step Time =    1.000,"P-41-1",           810,       115.859,       16.6409,            0.,NA,NA,"",   1.08051E+06,   1.12413E+06,   1.12413E+06
C:/temp/Job-41.odb,Step-1,Increment      1: Step Time =    1.000,"P-41-1",           811,       85.0507,       16.0692,            0.,NA,NA,"",   1.35242E+06,   1.34920E+06,   1.34920E+06
C:/temp/Job-41.odb,Step-1,Increment      1: Step Time =    1.000,"P-41-1",           812,       16.5054,       114.987,            0.,NA,NA,"",   223.015E+03,   252.190E+03,   252.190E+03
C:/temp/Job-41.odb,Step-1,Increment      1: Step Time =    1.000,"P-41-1",           813,       183.465,       84.5075,            0.,NA,NA,"",   920.713E+03,   1.04897E+06,   1.04897E+06
C:/temp/Job-41.odb,Step-1,Increment      1: Step Time =    1.000,"P-41-1",           814,       115.431,       183.379,            0.,NA,NA,"",    1.0825E+06,   1.12586E+06,   1.12586E+06
C:/temp/Job-41.odb,Step-1,Increment      1: Step Time =    1.000,"P-41-1",           815,       184.040,       115.554,            0.,NA,NA,"",   924.060E+03,   1.05525E+06,   1.05525E+06
C:/temp/Job-41.odb,Step-1,Increment      1: Step Time =    1.000,"P-41-1",           816,       85.3640,       183.621,            0.,NA,NA,"",   1.34965E+06,   1.34739E+06,   1.34739E+06
C:/temp/Job-41.odb,Step-1,Increment      1: Step Time =    1.000,"P-41-1",           817,       150.772,       71.3680,            0.,NA,NA,"",   1.48438E+06,   1.11054E+06,   1.11054E+06
C:/temp/Job-41.odb,Step-1,Increment      1: Step Time =    1.000,"P-41-1",           818,       95.5897,       14.6298,            0.,NA,NA,"",   1.14023E+06,   1.16698E+06,   1.16698E+06
C:/temp/Job-41.odb,Step-1,Increment      1: Step Time =    1.000,"P-41-1",           819,       14.6532,       104.266,            0.,NA,NA,"",   138.883E+03,   158.467E+03,   158.467E+03
C:/temp/Job-41.odb,Step-1,Increment      1: Step Time =    1.000,"P-41-1",           820,       184.528,       95.6311,            0.,NA,NA,"",   815.054E+03,   890.938E+03,   890.938E+03
C:/temp/Job-41.odb,Step-1,Increment      1: Step Time =    1.000,"P-41-1",           821,       104.446,       184.676,            0.,NA,NA,"",   1.06453E+06,   1.11089E+06,   1.11089E+06
C:/temp/Job-41.odb,Step-1,Increment      1: Step Time =    1.000,"P-41-1",           822,       51.8609,       66.8759,            0.,NA,NA,"",   894.647E+03,   696.584E+03,   696.584E+03
C:/temp/Job-41.odb,Step-1,Increment      1: Step Time =    1.000,"P-41-1",           823,       48.8352,       71.0814,            0.,NA,NA,"",   699.156E+03,   502.036E+03,   502.036E+03
C:/temp/Job-41.odb,Step-1,Increment      1: Step Time =    1.000,"P-41-1",           824,       14.4848,       94.7351,            0.,NA,NA,"",   144.342E+03,   165.114E+03,   165.114E+03
C:/temp/Job-41.odb,Step-1,Increment      1: Step Time =    1.000,"P-41-1",           825,       105.130,       14.6987,            0.,NA,NA,"",   1.04281E+06,   1.08527E+06,   1.08527E+06
C:/temp/Job-41.odb,Step-1,Increment      1: Step Time =    1.000,"P-41-1",           826,       185.697,       105.330,            0.,NA,NA,"",   847.468E+03,   928.867E+03,   928.867E+03
C:/temp/Job-41.odb,Step-1,Increment      1: Step Time =    1.000,"P-41-1",           827,       95.1688,       185.922,            0.,NA,NA,"",   1.13518E+06,   1.15794E+06,   1.15794E+06
C:/temp/Job-41.odb,Step-1,Increment      1: Step Time =    1.000,"P-41-1",           828,       45.8447,       80.7644,            0.,NA,NA,"",   402.547E+03,  -291.714E+03,  -291.714E+03
C:/temp/Job-41.odb,Step-1,Increment      1: Step Time =    1.000,"P-41-1",           829,       142.725,       57.5884,            0.,NA,NA,"",   1.87504E+06,   1.69717E+06,   1.69717E+06
C:/temp/Job-41.odb,Step-1,Increment      1: Step Time =    1.000,"P-41-1",           830,       83.2142,       45.4011,            0.,NA,NA,"",   2.11147E+06,   2.16669E+06,   2.16669E+06
C:/temp/Job-41.odb,Step-1,Increment      1: Step Time =    1.000,"P-41-1",           831,       153.421,       64.7808,            0.,NA,NA,"",   1.67846E+06,   1.37258E+06,   1.37258E+06
C:/temp/Job-41.odb,Step-1,Increment      1: Step Time =    1.000,"P-41-1",           832,       113.778,       48.2130,            0.,NA,NA,"",   2.53414E+06,   2.69235E+06,   2.69235E+06
C:/temp/Job-41.odb,Step-1,Increment      1: Step Time =    1.000,"P-41-1",           833,       56.0454,       119.993,            0.,NA,NA,"",   538.424E+03,  -515.052E+03,  -515.052E+03
C:/temp/Job-41.odb,Step-1,Increment      1: Step Time =    1.000,"P-41-1",           834,       144.882,       130.479,            0.,NA,NA,"",   1.46549E+06,   1.16329E+06,   1.16329E+06
C:/temp/Job-41.odb,Step-1,Increment      1: Step Time =    1.000,"P-41-1",           835,       63.9317,       146.501,            0.,NA,NA,"",   1.58493E+06,   1.45291E+06,   1.45291E+06
C:/temp/Job-41.odb,Step-1,Increment      1: Step Time =    1.000,"P-41-1",           836,       54.6330,       61.9703,            0.,NA,NA,"",   1.14197E+06,   954.583E+03,   954.583E+03
C:/temp/Job-41.odb,Step-1,Increment      1: Step Time =    1.000,"P-41-1",           837,       149.659,       131.651,            0.,NA,NA,"",   1.59315E+06,   1.25093E+06,   1.25093E+06
C:/temp/Job-41.odb,Step-1,Increment      1: Step Time =    1.000,"P-41-1",           838,       20.4149,       86.6769,            0.,NA,NA,"",   193.439E+03,   216.491E+03,   216.491E+03
C:/temp/Job-41.odb,Step-1,Increment      1: Step Time =    1.000,"P-41-1",           839,       113.142,       21.4977,            0.,NA,NA,"",   1.22130E+06,   1.29140E+06,   1.29140E+06
C:/temp/Job-41.odb,Step-1,Increment      1: Step Time =    1.000,"P-41-1",           840,       180.462,       112.557,            0.,NA,NA,"",   847.475E+03,   967.348E+03,   967.348E+03
C:/temp/Job-41.odb,Step-1,Increment      1: Step Time =    1.000,"P-41-1",           841,       88.9723,       179.905,            0.,NA,NA,"",   1.40376E+06,   1.42152E+06,   1.42152E+06
C:/temp/Job-41.odb,Step-1,Increment      1: Step Time =    1.000,"P-41-1",           842,       19.1474,       99.1317,            0.,NA,NA,"",   120.910E+03,   139.153E+03,   139.153E+03
C:/temp/Job-41.odb,Step-1,Increment      1: Step Time =    1.000,"P-41-1",           843,       100.465,       19.2950,            0.,NA,NA,"",   1.22971E+06,   1.28641E+06,   1.28641E+06
C:/temp/Job-41.odb,Step-1,Increment      1: Step Time =    1.000,"P-41-1",           844,       180.490,       101.474,            0.,NA,NA,"",   687.447E+03,   761.501E+03,   761.501E+03
C:/temp/Job-41.odb,Step-1,Increment      1: Step Time =    1.000,"P-41-1",           845,       98.8829,       180.920,            0.,NA,NA,"",   1.24324E+06,   1.29831E+06,   1.29831E+06
C:/temp/Job-41.odb,Step-1,Increment      1: Step Time =    1.000,"P-41-1",           846,       97.0745,       38.3085,            0.,NA,NA,"",   1.94811E+06,   2.08830E+06,   2.08830E+06
C:/temp/Job-41.odb,Step-1,Increment      1: Step Time =    1.000,"P-41-1",           847,       46.6286,       102.641,            0.,NA,NA,"",   407.128E+03,  -442.016E+03,  -442.016E+03
C:/temp/Job-41.odb,Step-1,Increment      1: Step Time =    1.000,"P-41-1",           848,       148.416,       140.833,            0.,NA,NA,"",   1.79543E+06,   1.54827E+06,   1.54827E+06
C:/temp/Job-41.odb,Step-1,Increment      1: Step Time =    1.000,"P-41-1",           849,       155.284,       119.040,            0.,NA,NA,"",   1.12579E+06,   194.378E+03,   194.378E+03
C:/temp/Job-41.odb,Step-1,Increment      1: Step Time =    1.000,"P-41-1",           850,       59.9877,       19.3128,            0.,NA,NA,"",   1.66717E+06,   1.60514E+06,   1.60514E+06
C:/temp/Job-41.odb,Step-1,Increment      1: Step Time =    1.000,"P-41-1",           851,       17.0408,       59.8115,            0.,NA,NA,"",   734.331E+03,   773.902E+03,   773.902E+03
C:/temp/Job-41.odb,Step-1,Increment      1: Step Time =    1.000,"P-41-1",           852,       61.1219,       182.265,            0.,NA,NA,"",   1.63901E+06,   1.58432E+06,   1.58432E+06
C:/temp/Job-41.odb,Step-1,Increment      1: Step Time =    1.000,"P-41-1",           853,       180.657,       59.7611,            0.,NA,NA,"",   1.19398E+06,   1.22331E+06,   1.22331E+06
C:/temp/Job-41.odb,Step-1,Increment      1: Step Time =    1.000,"P-41-1",           854,       140.377,       17.6362,            0.,NA,NA,"",   1.19006E+06,   1.17179E+06,   1.17179E+06
C:/temp/Job-41.odb,Step-1,Increment      1: Step Time =    1.000,"P-41-1",           855,       19.2161,       139.797,            0.,NA,NA,"",   737.043E+03,   767.794E+03,   767.794E+03
C:/temp/Job-41.odb,Step-1,Increment      1: Step Time =    1.000,"P-41-1",           856,       182.469,       139.876,            0.,NA,NA,"",   1.14777E+06,   1.20260E+06,   1.20260E+06
C:/temp/Job-41.odb,Step-1,Increment      1: Step Time =    1.000,"P-41-1",           857,       140.656,       181.064,            0.,NA,NA,"",   1.22484E+06,   1.20360E+06,   1.20360E+06
C:/temp/Job-41.odb,Step-1,Increment      1: Step Time =    1.000,"P-41-1",           858,       133.092,       154.178,            0.,NA,NA,"",   1.92465E+06,   1.90832E+06,   1.90832E+06
C:/temp/Job-41.odb,Step-1,Increment      1: Step Time =    1.000,"P-41-1",           859,       64.7967,       155.708,            0.,NA,NA,"",   1.81907E+06,   1.69537E+06,   1.69537E+06
C:/temp/Job-41.odb,Step-1,Increment      1: Step Time =    1.000,"P-41-1",           860,       43.6938,       90.1102,            0.,NA,NA,"",   284.222E+03,  -289.739E+03,  -289.739E+03
C:/temp/Job-41.odb,Step-1,Increment      1: Step Time =    1.000,"P-41-1",           861,       147.852,       77.2627,            0.,NA,NA,"",   1.14554E+06,   421.785E+03,   421.785E+03
C:/temp/Job-41.odb,Step-1,Increment      1: Step Time =    1.000,"P-41-1",           862,       131.537,       18.9397,            0.,NA,NA,"",   1.20272E+06,   1.20534E+06,   1.20534E+06
C:/temp/Job-41.odb,Step-1,Increment      1: Step Time =    1.000,"P-41-1",           863,       19.0217,       130.839,            0.,NA,NA,"",   525.359E+03,   555.150E+03,   555.150E+03
C:/temp/Job-41.odb,Step-1,Increment      1: Step Time =    1.000,"P-41-1",           864,       70.0159,       181.682,            0.,NA,NA,"",   1.59011E+06,   1.54152E+06,   1.54152E+06
C:/temp/Job-41.odb,Step-1,Increment      1: Step Time =    1.000,"P-41-1",           865,       180.404,       68.9385,            0.,NA,NA,"",   1.15017E+06,   1.20114E+06,   1.20114E+06
C:/temp/Job-41.odb,Step-1,Increment      1: Step Time =    1.000,"P-41-1",           866,       18.4308,       68.1799,            0.,NA,NA,"",   538.984E+03,   571.390E+03,   571.390E+03
C:/temp/Job-41.odb,Step-1,Increment      1: Step Time =    1.000,"P-41-1",           867,       69.2139,       19.4709,            0.,NA,NA,"",   1.61802E+06,   1.56417E+06,   1.56417E+06
C:/temp/Job-41.odb,Step-1,Increment      1: Step Time =    1.000,"P-41-1",           868,       181.481,       131.021,            0.,NA,NA,"",   1.13285E+06,   1.19961E+06,   1.19961E+06
C:/temp/Job-41.odb,Step-1,Increment      1: Step Time =    1.000,"P-41-1",           869,       131.639,       180.618,            0.,NA,NA,"",   1.21818E+06,   1.22031E+06,   1.22031E+06
C:/temp/Job-41.odb,Step-1,Increment      1: Step Time =    1.000,"P-41-1",           870,       114.242,       155.208,            0.,NA,NA,"",   2.20852E+06,   2.37120E+06,   2.37120E+06
C:/temp/Job-41.odb,Step-1,Increment      1: Step Time =    1.000,"P-41-1",           871,       89.1192,       147.325,            0.,NA,NA,"",   2.84244E+06,   2.92311E+06,   2.92311E+06
C:/temp/Job-41.odb,Step-1,Increment      1: Step Time =    1.000,"P-41-1",           872,       82.5119,       20.4748,            0.,NA,NA,"",   1.51547E+06,   1.50472E+06,   1.50472E+06
C:/temp/Job-41.odb,Step-1,Increment      1: Step Time =    1.000,"P-41-1",           873,       21.3953,       117.958,            0.,NA,NA,"",   259.974E+03,   280.832E+03,   280.832E+03
C:/temp/Job-41.odb,Step-1,Increment      1: Step Time =    1.000,"P-41-1",           874,       20.9968,       80.9177,            0.,NA,NA,"",   280.524E+03,   304.304E+03,   304.304E+03
C:/temp/Job-41.odb,Step-1,Increment      1: Step Time =    1.000,"P-41-1",           875,       119.219,       21.4023,            0.,NA,NA,"",   1.22791E+06,   1.28245E+06,   1.28245E+06
C:/temp/Job-41.odb,Step-1,Increment      1: Step Time =    1.000,"P-41-1",           876,       178.704,       118.125,            0.,NA,NA,"",   963.000E+03,   1.04379E+06,   1.04379E+06
C:/temp/Job-41.odb,Step-1,Increment      1: Step Time =    1.000,"P-41-1",           877,       83.3277,       178.181,            0.,NA,NA,"",   1.53746E+06,   1.53203E+06,   1.53203E+06
C:/temp/Job-41.odb,Step-1,Increment      1: Step Time =    1.000,"P-41-1",           878,       180.127,       81.5378,            0.,NA,NA,"",   963.135E+03,   1.06188E+06,   1.06188E+06
C:/temp/Job-41.odb,Step-1,Increment      1: Step Time =    1.000,"P-41-1",           879,       118.582,       178.883,            0.,NA,NA,"",   1.22451E+06,   1.27877E+06,   1.27877E+06
C:/temp/Job-41.odb,Step-1,Increment      1: Step Time =    1.000,"P-41-1",           880,       152.781,       75.8465,            0.,NA,NA,"",   1.33546E+06,   911.348E+03,   911.348E+03
C:/temp/Job-41.odb,Step-1,Increment      1: Step Time =    1.000,"P-41-1",           881,       91.7086,       19.5650,            0.,NA,NA,"",   1.36096E+06,   1.39381E+06,   1.39381E+06
C:/temp/Job-41.odb,Step-1,Increment      1: Step Time =    1.000,"P-41-1",           882,       19.9418,       108.016,            0.,NA,NA,"",   143.864E+03,   164.326E+03,   164.326E+03
C:/temp/Job-41.odb,Step-1,Increment      1: Step Time =    1.000,"P-41-1",           883,       179.004,       90.9837,            0.,NA,NA,"",   759.033E+03,   865.385E+03,   865.385E+03
C:/temp/Job-41.odb,Step-1,Increment      1: Step Time =    1.000,"P-41-1",           884,       108.728,       179.359,            0.,NA,NA,"",   1.21328E+06,   1.28727E+06,   1.28727E+06
C:/temp/Job-41.odb,Step-1,Increment      1: Step Time =    1.000,"P-41-1",           885,       45.9993,       74.8568,            0.,NA,NA,"",   551.990E+03,   226.989E+03,   226.989E+03
C:/temp/Job-41.odb,Step-1,Increment      1: Step Time =    1.000,"P-41-1",           886,       47.6143,       64.7431,            0.,NA,NA,"",   961.473E+03,   793.641E+03,   793.641E+03
C:/temp/Job-41.odb,Step-1,Increment      1: Step Time =    1.000,"P-41-1",           887,       79.0034,       50.2897,            0.,NA,NA,"",   2.06762E+06,   2.09173E+06,   2.09173E+06
C:/temp/Job-41.odb,Step-1,Increment      1: Step Time =    1.000,"P-41-1",           888,       59.2245,       65.5467,            0.,NA,NA,"",   925.215E+03,   752.593E+03,   752.593E+03
C:/temp/Job-41.odb,Step-1,Increment      1: Step Time =    1.000,"P-41-1",           889,       151.673,       60.6533,            0.,NA,NA,"",   1.76173E+06,   1.49082E+06,   1.49082E+06
C:/temp/Job-41.odb,Step-1,Increment      1: Step Time =    1.000,"P-41-1",           890,       108.161,       42.2768,            0.,NA,NA,"",   2.13521E+06,   2.30842E+06,   2.30842E+06
C:/temp/Job-41.odb,Step-1,Increment      1: Step Time =    1.000,"P-41-1",           891,       119.255,       49.9605,            0.,NA,NA,"",   2.42136E+06,   2.55266E+06,   2.55266E+06
C:/temp/Job-41.odb,Step-1,Increment      1: Step Time =    1.000,"P-41-1",           892,       56.8379,       130.565,            0.,NA,NA,"",   723.629E+03,   362.960E+03,   362.960E+03
C:/temp/Job-41.odb,Step-1,Increment      1: Step Time =    1.000,"P-41-1",           893,       48.2496,       124.199,            0.,NA,NA,"",   545.339E+03,   18.0112E+03,   18.0112E+03
C:/temp/Job-41.odb,Step-1,Increment      1: Step Time =    1.000,"P-41-1",           894,       89.1919,       25.5295,            0.,NA,NA,"",   1.55595E+06,   1.59396E+06,   1.59396E+06
C:/temp/Job-41.odb,Step-1,Increment      1: Step Time =    1.000,"P-41-1",           895,       25.3550,       110.748,            0.,NA,NA,"",   148.460E+03,   157.625E+03,   157.625E+03
C:/temp/Job-41.odb,Step-1,Increment      1: Step Time =    1.000,"P-41-1",           896,       173.185,       87.3239,            0.,NA,NA,"",   807.795E+03,   844.650E+03,   844.650E+03
C:/temp/Job-41.odb,Step-1,Increment      1: Step Time =    1.000,"P-41-1",           897,       112.031,       174.106,            0.,NA,NA,"",   1.35953E+06,   1.45316E+06,   1.45316E+06
C:/temp/Job-41.odb,Step-1,Increment      1: Step Time =    1.000,"P-41-1",           898,       52.1541,       132.297,            0.,NA,NA,"",   864.234E+03,   659.768E+03,   659.768E+03
C:/temp/Job-41.odb,Step-1,Increment      1: Step Time =    1.000,"P-41-1",           899,       77.8583,       24.3009,            0.,NA,NA,"",   1.65295E+06,   1.62233E+06,   1.62233E+06
C:/temp/Job-41.odb,Step-1,Increment      1: Step Time =    1.000,"P-41-1",           900,       24.3183,       123.101,            0.,NA,NA,"",   370.821E+03,   380.342E+03,   380.342E+03
C:/temp/Job-41.odb,Step-1,Increment      1: Step Time =    1.000,"P-41-1",           901,       24.7812,       78.4042,            0.,NA,NA,"",   339.634E+03,   349.597E+03,   349.597E+03
C:/temp/Job-41.odb,Step-1,Increment      1: Step Time =    1.000,"P-41-1",           902,       121.583,       25.0388,            0.,NA,NA,"",   1.34016E+06,   1.39551E+06,   1.39551E+06
C:/temp/Job-41.odb,Step-1,Increment      1: Step Time =    1.000,"P-41-1",           903,       173.517,       120.046,            0.,NA,NA,"",   1.04533E+06,   1.03513E+06,   1.03513E+06
C:/temp/Job-41.odb,Step-1,Increment      1: Step Time =    1.000,"P-41-1",           904,       77.7122,       175.064,            0.,NA,NA,"",   1.66791E+06,   1.63462E+06,   1.63462E+06
C:/temp/Job-41.odb,Step-1,Increment      1: Step Time =    1.000,"P-41-1",           905,       175.879,       77.9092,            0.,NA,NA,"",   1.07173E+06,   1.08872E+06,   1.08872E+06
C:/temp/Job-41.odb,Step-1,Increment      1: Step Time =    1.000,"P-41-1",           906,       123.626,       176.033,            0.,NA,NA,"",   1.31951E+06,   1.36240E+06,   1.36240E+06
C:/temp/Job-41.odb,Step-1,Increment      1: Step Time =    1.000,"P-41-1",           907,       107.896,       153.094,            0.,NA,NA,"",   2.56391E+06,   2.73924E+06,   2.73924E+06
C:/temp/Job-41.odb,Step-1,Increment      1: Step Time =    1.000,"P-41-1",           908,       174.284,       99.7501,            0.,NA,NA,"",   518.321E+03,    593.18E+03,    593.18E+03
C:/temp/Job-41.odb,Step-1,Increment      1: Step Time =    1.000,"P-41-1",           909,       99.5904,       174.149,            0.,NA,NA,"",   1.44370E+06,   1.53470E+06,   1.53470E+06
C:/temp/Job-41.odb,Step-1,Increment      1: Step Time =    1.000,"P-41-1",           910,       23.7462,       98.7913,            0.,NA,NA,"",   94.4859E+03,   107.906E+03,   107.906E+03
C:/temp/Job-41.odb,Step-1,Increment      1: Step Time =    1.000,"P-41-1",           911,       100.891,       24.2056,            0.,NA,NA,"",   1.36983E+06,   1.45206E+06,   1.45206E+06
C:/temp/Job-41.odb,Step-1,Increment      1: Step Time =    1.000,"P-41-1",           912,       56.4704,       54.9601,            0.,NA,NA,"",   1.44681E+06,   1.27310E+06,   1.27310E+06
C:/temp/Job-41.odb,Step-1,Increment      1: Step Time =    1.000,"P-41-1",           913,       112.166,       161.135,            0.,NA,NA,"",   1.87228E+06,   2.02929E+06,   2.02929E+06
C:/temp/Job-41.odb,Step-1,Increment      1: Step Time =    1.000,"P-41-1",           914,       59.4578,       24.2369,            0.,NA,NA,"",   1.71990E+06,   1.63808E+06,   1.63808E+06
C:/temp/Job-41.odb,Step-1,Increment      1: Step Time =    1.000,"P-41-1",           915,       20.4327,       59.3437,            0.,NA,NA,"",   769.522E+03,   796.136E+03,   796.136E+03
C:/temp/Job-41.odb,Step-1,Increment      1: Step Time =    1.000,"P-41-1",           916,       141.083,       22.1999,            0.,NA,NA,"",   1.30912E+06,   1.28172E+06,   1.28172E+06
C:/temp/Job-41.odb,Step-1,Increment      1: Step Time =    1.000,"P-41-1",           917,       24.0555,       139.745,            0.,NA,NA,"",   785.439E+03,   791.426E+03,   791.426E+03
C:/temp/Job-41.odb,Step-1,Increment      1: Step Time =    1.000,"P-41-1",           918,       177.828,       140.128,            0.,NA,NA,"",   1.25270E+06,   1.24921E+06,   1.24921E+06
C:/temp/Job-41.odb,Step-1,Increment      1: Step Time =    1.000,"P-41-1",           919,       141.898,       176.356,            0.,NA,NA,"",   1.33790E+06,   1.30593E+06,   1.30593E+06
C:/temp/Job-41.odb,Step-1,Increment      1: Step Time =    1.000,"P-41-1",           920,       57.4597,       177.589,            0.,NA,NA,"",   1.70463E+06,   1.63090E+06,   1.63090E+06
C:/temp/Job-41.odb,Step-1,Increment      1: Step Time =    1.000,"P-41-1",           921,       175.622,       59.3826,            0.,NA,NA,"",   1.30808E+06,   1.27377E+06,   1.27377E+06
C:/temp/Job-41.odb,Step-1,Increment      1: Step Time =    1.000,"P-41-1",           922,       153.919,       141.711,            0.,NA,NA,"",   1.74223E+06,   1.49632E+06,   1.49632E+06
C:/temp/Job-41.odb,Step-1,Increment      1: Step Time =    1.000,"P-41-1",           923,       69.1428,       24.5522,            0.,NA,NA,"",   1.71373E+06,   1.64596E+06,   1.64596E+06
C:/temp/Job-41.odb,Step-1,Increment      1: Step Time =    1.000,"P-41-1",           924,       131.823,       175.899,            0.,NA,NA,"",   1.35263E+06,   1.35716E+06,   1.35716E+06
C:/temp/Job-41.odb,Step-1,Increment      1: Step Time =    1.000,"P-41-1",           925,       23.7496,       130.907,            0.,NA,NA,"",   557.529E+03,   566.930E+03,   566.930E+03
C:/temp/Job-41.odb,Step-1,Increment      1: Step Time =    1.000,"P-41-1",           926,       175.086,       68.7136,            0.,NA,NA,"",   1.25582E+06,   1.22294E+06,   1.22294E+06
C:/temp/Job-41.odb,Step-1,Increment      1: Step Time =    1.000,"P-41-1",           927,       52.9242,       57.1954,            0.,NA,NA,"",   1.31616E+06,   1.14056E+06,   1.14056E+06
C:/temp/Job-41.odb,Step-1,Increment      1: Step Time =    1.000,"P-41-1",           928,       78.3734,       45.6565,            0.,NA,NA,"",   2.00194E+06,   2.00337E+06,   2.00337E+06
C:/temp/Job-41.odb,Step-1,Increment      1: Step Time =    1.000,"P-41-1",           929,       154.055,       128.729,            0.,NA,NA,"",   1.51842E+06,   1.15350E+06,   1.15350E+06
C:/temp/Job-41.odb,Step-1,Increment      1: Step Time =    1.000,"P-41-1",           930,       92.9097,       35.5951,            0.,NA,NA,"",   1.84079E+06,   1.94369E+06,   1.94369E+06
C:/temp/Job-41.odb,Step-1,Increment      1: Step Time =    1.000,"P-41-1",           931,       161.754,       114.906,            0.,NA,NA,"",   923.851E+03,   686.935E+03,   686.935E+03
C:/temp/Job-41.odb,Step-1,Increment      1: Step Time =    1.000,"P-41-1",           932,       56.1593,       186.763,            0.,NA,NA,"",   1.62329E+06,   1.58751E+06,   1.58751E+06
C:/temp/Job-41.odb,Step-1,Increment      1: Step Time =    1.000,"P-41-1",           933,       185.646,       55.3629,            0.,NA,NA,"",   1.08444E+06,   1.15687E+06,   1.15687E+06
C:/temp/Job-41.odb,Step-1,Increment      1: Step Time =    1.000,"P-41-1",           934,       144.826,       16.9538,            0.,NA,NA,"",   1.17733E+06,   1.15358E+06,   1.15358E+06
C:/temp/Job-41.odb,Step-1,Increment      1: Step Time =    1.000,"P-41-1",           935,       14.5516,       144.505,            0.,NA,NA,"",   808.304E+03,   860.784E+03,   860.784E+03
C:/temp/Job-41.odb,Step-1,Increment      1: Step Time =    1.000,"P-41-1",           936,       16.9759,       55.6744,            0.,NA,NA,"",   825.960E+03,   869.017E+03,   869.017E+03
C:/temp/Job-41.odb,Step-1,Increment      1: Step Time =    1.000,"P-41-1",           937,       55.4566,       14.5160,            0.,NA,NA,"",   1.64106E+06,   1.59975E+06,   1.59975E+06
C:/temp/Job-41.odb,Step-1,Increment      1: Step Time =    1.000,"P-41-1",           938,       182.962,       144.322,            0.,NA,NA,"",   1.14080E+06,   1.18958E+06,   1.18958E+06
C:/temp/Job-41.odb,Step-1,Increment      1: Step Time =    1.000,"P-41-1",           939,       144.634,       185.952,            0.,NA,NA,"",   1.10902E+06,   1.09107E+06,   1.09107E+06
C:/temp/Job-41.odb,Step-1,Increment      1: Step Time =    1.000,"P-41-1",           940,       69.1111,       160.344,            0.,NA,NA,"",   1.88937E+06,   1.79612E+06,   1.79612E+06
C:/temp/Job-41.odb,Step-1,Increment      1: Step Time =    1.000,"P-41-1",           941,       44.8666,       68.5815,            0.,NA,NA,"",   785.091E+03,   629.622E+03,   629.622E+03
C:/temp/Job-41.odb,Step-1,Increment      1: Step Time =    1.000,"P-41-1",           942,       147.232,       54.4096,            0.,NA,NA,"",   1.84363E+06,   1.65235E+06,   1.65235E+06
C:/temp/Job-41.odb,Step-1,Increment      1: Step Time =    1.000,"P-41-1",           943,       107.714,       37.2710,            0.,NA,NA,"",   1.81678E+06,   1.97448E+06,   1.97448E+06
C:/temp/Job-41.odb,Step-1,Increment      1: Step Time =    1.000,"P-41-1",           944,       50.1775,       128.177,            0.,NA,NA,"",   683.693E+03,   300.202E+03,   300.202E+03
C:/temp/Job-41.odb,Step-1,Increment      1: Step Time =    1.000,"P-41-1",           945,       92.6159,       153.204,            0.,NA,NA,"",   2.46142E+06,   2.59919E+06,   2.59919E+06
C:/temp/Job-41.odb,Step-1,Increment      1: Step Time =    1.000,"P-41-1",           946,       122.491,       180.204,            0.,NA,NA,"",   1.19913E+06,   1.23477E+06,   1.23477E+06
C:/temp/Job-41.odb,Step-1,Increment      1: Step Time =    1.000,"P-41-1",           947,       78.4505,       19.6669,            0.,NA,NA,"",   1.53919E+06,   1.51181E+06,   1.51181E+06
C:/temp/Job-41.odb,Step-1,Increment      1: Step Time =    1.000,"P-41-1",           948,       180.472,       77.9418,            0.,NA,NA,"",   1.02670E+06,   1.11231E+06,   1.11231E+06
C:/temp/Job-41.odb,Step-1,Increment      1: Step Time =    1.000,"P-41-1",           949,       19.9531,       121.920,            0.,NA,NA,"",   332.424E+03,   357.363E+03,   357.363E+03
C:/temp/Job-41.odb,Step-1,Increment      1: Step Time =    1.000,"P-41-1",           950,       135.950,       56.0141,            0.,NA,NA,"",   1.97235E+06,   1.89493E+06,   1.89493E+06
C:/temp/Job-41.odb,Step-1,Increment      1: Step Time =    1.000,"P-41-1",           951,       178.035,       86.4439,            0.,NA,NA,"",   857.030E+03,   951.762E+03,   951.762E+03
C:/temp/Job-41.odb,Step-1,Increment      1: Step Time =    1.000,"P-41-1",           952,       112.966,       178.441,            0.,NA,NA,"",   1.22640E+06,   1.29579E+06,   1.29579E+06
C:/temp/Job-41.odb,Step-1,Increment      1: Step Time =    1.000,"P-41-1",           953,       87.8890,       20.6592,            0.,NA,NA,"",   1.44483E+06,   1.46096E+06,   1.46096E+06
C:/temp/Job-41.odb,Step-1,Increment      1: Step Time =    1.000,"P-41-1",           954,       21.2862,       112.081,            0.,NA,NA,"",   178.077E+03,   198.187E+03,   198.187E+03
C:/temp/Job-41.odb,Step-1,Increment      1: Step Time =    1.000,"P-41-1",           955,       161.082,       88.1178,            0.,NA,NA,"",   787.693E+03,   542.708E+03,   542.708E+03
C:/temp/Job-41.odb,Step-1,Increment      1: Step Time =    1.000,"P-41-1",           956,       161.975,       109.517,            0.,NA,NA,"",   670.201E+03,   281.150E+03,   281.150E+03
C:/temp/Job-41.odb,Step-1,Increment      1: Step Time =    1.000,"P-41-1",           957,       86.9709,       156.534,            0.,NA,NA,"",   2.13351E+06,   2.21644E+06,   2.21644E+06
C:/temp/Job-41.odb,Step-1,Increment      1: Step Time =    1.000,"P-41-1",           958,       154.398,       136.676,            0.,NA,NA,"",   1.69341E+06,   1.40171E+06,   1.40171E+06
C:/temp/Job-41.odb,Step-1,Increment      1: Step Time =    1.000,"P-41-1",           959,       142.067,       150.414,            0.,NA,NA,"",   1.87794E+06,   1.75203E+06,   1.75203E+06
C:/temp/Job-41.odb,Step-1,Increment      1: Step Time =    1.000,"P-41-1",           960,       128.260,       155.759,            0.,NA,NA,"",   1.95141E+06,   1.99291E+06,   1.99291E+06
C:/temp/Job-41.odb,Step-1,Increment      1: Step Time =    1.000,"P-41-1",           961,       154.594,       132.164,            0.,NA,NA,"",   1.60915E+06,   1.27650E+06,   1.27650E+06
C:/temp/Job-41.odb,Step-1,Increment      1: Step Time =    1.000,"P-41-1",           962,       86.2324,       160.975,            0.,NA,NA,"",   1.96241E+06,   2.02373E+06,   2.02373E+06
C:/temp/Job-41.odb,Step-1,Increment      1: Step Time =    1.000,"P-41-1",           963,       68.4936,       165.219,            0.,NA,NA,"",   1.85555E+06,   1.76423E+06,   1.76423E+06
C:/temp/Job-41.odb,Step-1,Increment      1: Step Time =    1.000,"P-41-1",           964,       126.519,       159.464,            0.,NA,NA,"",   1.84319E+06,   1.89945E+06,   1.89945E+06
C:/temp/Job-41.odb,Step-1,Increment      1: Step Time =    1.000,"P-41-1",           965,       96.8289,       155.374,            0.,NA,NA,"",   2.34160E+06,   2.50175E+06,   2.50175E+06
C:/temp/Job-41.odb,Step-1,Increment      1: Step Time =    1.000,"P-41-1",           966,       38.0792,       68.8734,            0.,NA,NA,"",   708.096E+03,   615.622E+03,   615.622E+03
C:/temp/Job-41.odb,Step-1,Increment      1: Step Time =    1.000,"P-41-1",           967,       8.50850,       55.3242,            0.,NA,NA,"",   770.292E+03,   842.282E+03,   842.282E+03
C:/temp/Job-41.odb,Step-1,Increment      1: Step Time =    1.000,"P-41-1",           968,       55.7604,       191.288,            0.,NA,NA,"",   1.59440E+06,   1.57586E+06,   1.57586E+06
C:/temp/Job-41.odb,Step-1,Increment      1: Step Time =    1.000,"P-41-1",           969,       144.617,       8.36506,            0.,NA,NA,"",   974.007E+03,   965.851E+03,   965.851E+03
C:/temp/Job-41.odb,Step-1,Increment      1: Step Time =    1.000,"P-41-1",           970,       191.636,       144.500,            0.,NA,NA,"",   962.438E+03,   1.07882E+06,   1.07882E+06
C:/temp/Job-41.odb,Step-1,Increment      1: Step Time =    1.000,"P-41-1",           971,       96.1209,       24.8953,            0.,NA,NA,"",   1.45591E+06,   1.52834E+06,   1.52834E+06
C:/temp/Job-41.odb,Step-1,Increment      1: Step Time =    1.000,"P-41-1",           972,       23.9974,       103.031,            0.,NA,NA,"",   98.2650E+03,   111.759E+03,   111.759E+03
C:/temp/Job-41.odb,Step-1,Increment      1: Step Time =    1.000,"P-41-1",           973,       174.981,       94.6917,            0.,NA,NA,"",   593.966E+03,   679.477E+03,   679.477E+03
C:/temp/Job-41.odb,Step-1,Increment      1: Step Time =    1.000,"P-41-1",           974,       106.161,       173.582,            0.,NA,NA,"",   1.40269E+06,   1.50782E+06,   1.50782E+06
C:/temp/Job-41.odb,Step-1,Increment      1: Step Time =    1.000,"P-41-1",           975,       27.2422,       81.1838,            0.,NA,NA,"",   286.269E+03,   285.712E+03,   285.712E+03
C:/temp/Job-41.odb,Step-1,Increment      1: Step Time =    1.000,"P-41-1",           976,       118.936,       27.5378,            0.,NA,NA,"",   1.41552E+06,   1.49447E+06,   1.49447E+06
C:/temp/Job-41.odb,Step-1,Increment      1: Step Time =    1.000,"P-41-1",           977,       85.2012,       24.8671,            0.,NA,NA,"",   1.59038E+06,   1.59793E+06,   1.59793E+06
C:/temp/Job-41.odb,Step-1,Increment      1: Step Time =    1.000,"P-41-1",           978,       27.6159,       114.912,            0.,NA,NA,"",   213.782E+03,   210.212E+03,   210.212E+03
C:/temp/Job-41.odb,Step-1,Increment      1: Step Time =    1.000,"P-41-1",           979,       173.282,       114.887,            0.,NA,NA,"",   877.052E+03,    902.09E+03,    902.09E+03
C:/temp/Job-41.odb,Step-1,Increment      1: Step Time =    1.000,"P-41-1",           980,       81.9261,       173.558,            0.,NA,NA,"",   1.67271E+06,   1.66372E+06,   1.66372E+06
C:/temp/Job-41.odb,Step-1,Increment      1: Step Time =    1.000,"P-41-1",           981,       172.272,       82.9720,            0.,NA,NA,"",   961.091E+03,   949.830E+03,   949.830E+03
C:/temp/Job-41.odb,Step-1,Increment      1: Step Time =    1.000,"P-41-1",           982,       116.456,       172.754,            0.,NA,NA,"",   1.39988E+06,   1.48371E+06,   1.48371E+06
C:/temp/Job-41.odb,Step-1,Increment      1: Step Time =    1.000,"P-41-1",           983,       113.800,       164.864,            0.,NA,NA,"",   1.68846E+06,   1.82318E+06,   1.82318E+06
C:/temp/Job-41.odb,Step-1,Increment      1: Step Time =    1.000,"P-41-1",           984,       64.3867,       24.7794,            0.,NA,NA,"",   1.72507E+06,   1.64597E+06,   1.64597E+06
C:/temp/Job-41.odb,Step-1,Increment      1: Step Time =    1.000,"P-41-1",           985,       23.1329,       62.2141,            0.,NA,NA,"",   727.635E+03,   739.445E+03,   739.445E+03
C:/temp/Job-41.odb,Step-1,Increment      1: Step Time =    1.000,"P-41-1",           986,       136.838,       23.3717,            0.,NA,NA,"",   1.33773E+06,   1.32250E+06,   1.32250E+06
C:/temp/Job-41.odb,Step-1,Increment      1: Step Time =    1.000,"P-41-1",           987,       24.2377,       135.239,            0.,NA,NA,"",   667.316E+03,   674.694E+03,   674.694E+03
C:/temp/Job-41.odb,Step-1,Increment      1: Step Time =    1.000,"P-41-1",           988,       137.273,       174.431,            0.,NA,NA,"",   1.39385E+06,   1.37387E+06,   1.37387E+06
C:/temp/Job-41.odb,Step-1,Increment      1: Step Time =    1.000,"P-41-1",           989,       177.073,       135.719,            0.,NA,NA,"",   1.25012E+06,   1.24480E+06,   1.24480E+06
C:/temp/Job-41.odb,Step-1,Increment      1: Step Time =    1.000,"P-41-1",           990,       66.2019,       173.723,            0.,NA,NA,"",   1.74724E+06,   1.66758E+06,   1.66758E+06
C:/temp/Job-41.odb,Step-1,Increment      1: Step Time =    1.000,"P-41-1",           991,       175.376,       64.0656,            0.,NA,NA,"",   1.29745E+06,   1.25949E+06,   1.25949E+06
C:/temp/Job-41.odb,Step-1,Increment      1: Step Time =    1.000,"P-41-1",           992,       44.3033,       63.1394,            0.,NA,NA,"",   974.707E+03,   831.046E+03,   831.046E+03
C:/temp/Job-41.odb,Step-1,Increment      1: Step Time =    1.000,"P-41-1",           993,       88.9219,       40.0214,            0.,NA,NA,"",   2.02884E+06,   2.11911E+06,   2.11911E+06
C:/temp/Job-41.odb,Step-1,Increment      1: Step Time =    1.000,"P-41-1",           994,       164.648,       112.810,            0.,NA,NA,"",   823.622E+03,   673.170E+03,   673.170E+03
C:/temp/Job-41.odb,Step-1,Increment      1: Step Time =    1.000,"P-41-1",           995,       151.276,       54.8442,            0.,NA,NA,"",   1.79589E+06,   1.57714E+06,   1.57714E+06
C:/temp/Job-41.odb,Step-1,Increment      1: Step Time =    1.000,"P-41-1",           996,       103.671,       36.6830,            0.,NA,NA,"",   1.81203E+06,   1.96737E+06,   1.96737E+06
C:/temp/Job-41.odb,Step-1,Increment      1: Step Time =    1.000,"P-41-1",           997,       103.544,       155.624,            0.,NA,NA,"",   2.35159E+06,   2.53079E+06,   2.53079E+06
C:/temp/Job-41.odb,Step-1,Increment      1: Step Time =    1.000,"P-41-1",           998,       55.6864,       49.4465,            0.,NA,NA,"",   1.57983E+06,   1.41764E+06,   1.41764E+06
C:/temp/Job-41.odb,Step-1,Increment      1: Step Time =    1.000,"P-41-1",           999,       147.010,       151.329,            0.,NA,NA,"",   1.81177E+06,   1.65460E+06,   1.65460E+06
C:/temp/Job-41.odb,Step-1,Increment      1: Step Time =    1.000,"P-41-1",          1000,       28.3570,       124.515,            0.,NA,NA,"",   425.013E+03,   413.179E+03,   413.179E+03
C:/temp/Job-41.odb,Step-1,Increment      1: Step Time =    1.000,"P-41-1",          1001,       170.338,       73.6457,            0.,NA,NA,"",   1.24598E+06,   1.14373E+06,   1.14373E+06
C:/temp/Job-41.odb,Step-1,Increment      1: Step Time =    1.000,"P-41-1",          1002,       73.7491,       27.7165,            0.,NA,NA,"",   1.75326E+06,   1.69975E+06,   1.69975E+06
C:/temp/Job-41.odb,Step-1,Increment      1: Step Time =    1.000,"P-41-1",          1003,       124.538,       172.014,            0.,NA,NA,"",   1.43666E+06,   1.48632E+06,   1.48632E+06
C:/temp/Job-41.odb,Step-1,Increment      1: Step Time =    1.000,"P-41-1",          1004,       29.6398,       95.2519,            0.,NA,NA,"",   74.8298E+03,   55.5394E+03,   55.5394E+03
C:/temp/Job-41.odb,Step-1,Increment      1: Step Time =    1.000,"P-41-1",          1005,       102.210,       29.4917,            0.,NA,NA,"",   1.53888E+06,   1.65279E+06,   1.65279E+06
C:/temp/Job-41.odb,Step-1,Increment      1: Step Time =    1.000,"P-41-1",          1006,       172.313,       105.533,            0.,NA,NA,"",   552.676E+03,   616.758E+03,   616.758E+03
C:/temp/Job-41.odb,Step-1,Increment      1: Step Time =    1.000,"P-41-1",          1007,       92.3562,       174.690,            0.,NA,NA,"",   1.51414E+06,   1.56983E+06,   1.56983E+06
C:/temp/Job-41.odb,Step-1,Increment      1: Step Time =    1.000,"P-41-1",          1008,       49.6626,       58.0763,            0.,NA,NA,"",   1.23163E+06,   1.06180E+06,   1.06180E+06
C:/temp/Job-41.odb,Step-1,Increment      1: Step Time =    1.000,"P-41-1",          1009,       143.355,       53.5422,            0.,NA,NA,"",   1.89118E+06,   1.73134E+06,   1.73134E+06
C:/temp/Job-41.odb,Step-1,Increment      1: Step Time =    1.000,"P-41-1",          1010,       47.3387,       133.933,            0.,NA,NA,"",   905.110E+03,   731.639E+03,   731.639E+03
C:/temp/Job-41.odb,Step-1,Increment      1: Step Time =    1.000,"P-41-1",          1011,       164.566,       106.918,            0.,NA,NA,"",   539.001E+03,   452.671E+03,   452.671E+03
C:/temp/Job-41.odb,Step-1,Increment      1: Step Time =    1.000,"P-41-1",          1012,       163.694,       83.4033,            0.,NA,NA,"",   989.317E+03,   786.737E+03,   786.737E+03
C:/temp/Job-41.odb,Step-1,Increment      1: Step Time =    1.000,"P-41-1",          1013,       163.462,       91.4980,            0.,NA,NA,"",   610.964E+03,   471.302E+03,   471.302E+03
C:/temp/Job-41.odb,Step-1,Increment      1: Step Time =    1.000,"P-41-1",          1014,       159.637,       122.860,            0.,NA,NA,"",   1.28839E+06,   970.236E+03,   970.236E+03
C:/temp/Job-41.odb,Step-1,Increment      1: Step Time =    1.000,"P-41-1",          1015,       155.852,       69.3802,            0.,NA,NA,"",   1.55402E+06,   1.22526E+06,   1.22526E+06
C:/temp/Job-41.odb,Step-1,Increment      1: Step Time =    1.000,"P-41-1",          1016,       158.627,       79.7396,            0.,NA,NA,"",   1.18760E+06,   839.110E+03,   839.110E+03
C:/temp/Job-41.odb,Step-1,Increment      1: Step Time =    1.000,"P-41-1",          1017,       38.8678,       91.7584,            0.,NA,NA,"",   176.332E+03,  -165.661E+03,  -165.661E+03
C:/temp/Job-41.odb,Step-1,Increment      1: Step Time =    1.000,"P-41-1",          1018,       52.1877,       181.864,            0.,NA,NA,"",   1.68110E+06,   1.62709E+06,   1.62709E+06
C:/temp/Job-41.odb,Step-1,Increment      1: Step Time =    1.000,"P-41-1",          1019,       185.557,       50.9722,            0.,NA,NA,"",   1.08521E+06,   1.14420E+06,   1.14420E+06
C:/temp/Job-41.odb,Step-1,Increment      1: Step Time =    1.000,"P-41-1",          1020,       183.579,       153.000,            0.,NA,NA,"",   1.11793E+06,   1.15328E+06,   1.15328E+06
C:/temp/Job-41.odb,Step-1,Increment      1: Step Time =    1.000,"P-41-1",          1021,       148.978,       185.704,            0.,NA,NA,"",   1.11802E+06,   1.09759E+06,   1.09759E+06
C:/temp/Job-41.odb,Step-1,Increment      1: Step Time =    1.000,"P-41-1",          1022,       17.8854,       47.3945,            0.,NA,NA,"",   1.03241E+06,   1.07384E+06,   1.07384E+06
C:/temp/Job-41.odb,Step-1,Increment      1: Step Time =    1.000,"P-41-1",          1023,       50.9367,       14.8435,            0.,NA,NA,"",   1.67058E+06,   1.63113E+06,   1.63113E+06
C:/temp/Job-41.odb,Step-1,Increment      1: Step Time =    1.000,"P-41-1",          1024,       14.8679,       148.989,            0.,NA,NA,"",   914.676E+03,   969.788E+03,   969.788E+03
C:/temp/Job-41.odb,Step-1,Increment      1: Step Time =    1.000,"P-41-1",          1025,       153.413,       16.1005,            0.,NA,NA,"",   1.14782E+06,   1.12347E+06,   1.12347E+06
C:/temp/Job-41.odb,Step-1,Increment      1: Step Time =    1.000,"P-41-1",          1026,       108.650,       163.440,            0.,NA,NA,"",   1.77957E+06,   1.93473E+06,   1.93473E+06
C:/temp/Job-41.odb,Step-1,Increment      1: Step Time =    1.000,"P-41-1",          1027,       166.565,       122.251,            0.,NA,NA,"",   1.18605E+06,   1.02616E+06,   1.02616E+06
C:/temp/Job-41.odb,Step-1,Increment      1: Step Time =    1.000,"P-41-1",          1028,       163.695,       126.266,            0.,NA,NA,"",   1.35067E+06,   1.12427E+06,   1.12427E+06
C:/temp/Job-41.odb,Step-1,Increment      1: Step Time =    1.000,"P-41-1",          1029,       22.9911,       67.2642,            0.,NA,NA,"",   587.621E+03,   599.995E+03,   599.995E+03
C:/temp/Job-41.odb,Step-1,Increment      1: Step Time =    1.000,"P-41-1",          1030,       176.840,       131.572,            0.,NA,NA,"",   1.22586E+06,   1.22410E+06,   1.22410E+06
C:/temp/Job-41.odb,Step-1,Increment      1: Step Time =    1.000,"P-41-1",          1031,       132.363,       24.1823,            0.,NA,NA,"",   1.35545E+06,   1.35770E+06,   1.35770E+06
C:/temp/Job-41.odb,Step-1,Increment      1: Step Time =    1.000,"P-41-1",          1032,       69.7407,       177.497,            0.,NA,NA,"",   1.67645E+06,   1.61519E+06,   1.61519E+06
C:/temp/Job-41.odb,Step-1,Increment      1: Step Time =    1.000,"P-41-1",          1033,       151.454,       49.8519,            0.,NA,NA,"",   1.76611E+06,   1.58766E+06,   1.58766E+06
C:/temp/Job-41.odb,Step-1,Increment      1: Step Time =    1.000,"P-41-1",          1034,       82.2722,       166.501,            0.,NA,NA,"",   1.83690E+06,   1.84681E+06,   1.84681E+06
C:/temp/Job-41.odb,Step-1,Increment      1: Step Time =    1.000,"P-41-1",          1035,       72.8497,       165.660,            0.,NA,NA,"",   1.86880E+06,   1.80410E+06,   1.80410E+06
C:/temp/Job-41.odb,Step-1,Increment      1: Step Time =    1.000,"P-41-1",          1036,       130.334,       157.488,            0.,NA,NA,"",   1.87809E+06,   1.89766E+06,   1.89766E+06
C:/temp/Job-41.odb,Step-1,Increment      1: Step Time =    1.000,"P-41-1",          1037,       121.768,       162.883,            0.,NA,NA,"",   1.73966E+06,   1.83116E+06,   1.83116E+06
C:/temp/Job-41.odb,Step-1,Increment      1: Step Time =    1.000,"P-41-1",          1038,       100.150,       150.462,            0.,NA,NA,"",   3.00805E+06,   3.15367E+06,   3.15367E+06
C:/temp/Job-41.odb,Step-1,Increment      1: Step Time =    1.000,"P-41-1",          1039,       36.8462,       74.6492,            0.,NA,NA,"",   507.566E+03,   421.713E+03,   421.713E+03
C:/temp/Job-41.odb,Step-1,Increment      1: Step Time =    1.000,"P-41-1",          1040,       166.363,       116.263,            0.,NA,NA,"",   963.081E+03,   831.434E+03,   831.434E+03
C:/temp/Job-41.odb,Step-1,Increment      1: Step Time =    1.000,"P-41-1",          1041,       86.8588,       29.3308,            0.,NA,NA,"",   1.68999E+06,   1.72268E+06,   1.72268E+06
C:/temp/Job-41.odb,Step-1,Increment      1: Step Time =    1.000,"P-41-1",          1042,       31.0283,       111.006,            0.,NA,NA,"",   150.304E+03,   88.3801E+03,   88.3801E+03
C:/temp/Job-41.odb,Step-1,Increment      1: Step Time =    1.000,"P-41-1",          1043,       167.775,       88.4091,            0.,NA,NA,"",   754.495E+03,   695.322E+03,   695.322E+03
C:/temp/Job-41.odb,Step-1,Increment      1: Step Time =    1.000,"P-41-1",          1044,       109.884,       169.820,            0.,NA,NA,"",   1.51637E+06,   1.63854E+06,   1.63854E+06
C:/temp/Job-41.odb,Step-1,Increment      1: Step Time =    1.000,"P-41-1",          1045,       31.3267,       78.4432,            0.,NA,NA,"",   365.385E+03,   332.428E+03,   332.428E+03
C:/temp/Job-41.odb,Step-1,Increment      1: Step Time =    1.000,"P-41-1",          1046,       81.8822,       28.2416,            0.,NA,NA,"",   1.70358E+06,   1.69796E+06,   1.69796E+06
C:/temp/Job-41.odb,Step-1,Increment      1: Step Time =    1.000,"P-41-1",          1047,       29.9233,       121.629,            0.,NA,NA,"",   363.562E+03,   341.643E+03,   341.643E+03
C:/temp/Job-41.odb,Step-1,Increment      1: Step Time =    1.000,"P-41-1",          1048,       169.001,       118.625,            0.,NA,NA,"",   1.03754E+06,   947.884E+03,   947.884E+03
C:/temp/Job-41.odb,Step-1,Increment      1: Step Time =    1.000,"P-41-1",          1049,       76.8022,       170.502,            0.,NA,NA,"",   1.77486E+06,   1.73927E+06,   1.73927E+06
C:/temp/Job-41.odb,Step-1,Increment      1: Step Time =    1.000,"P-41-1",          1050,       171.400,       78.3671,            0.,NA,NA,"",   1.10816E+06,   1.04919E+06,   1.04919E+06
C:/temp/Job-41.odb,Step-1,Increment      1: Step Time =    1.000,"P-41-1",          1051,       120.357,       169.475,            0.,NA,NA,"",   1.51120E+06,   1.59099E+06,   1.59099E+06
C:/temp/Job-41.odb,Step-1,Increment      1: Step Time =    1.000,"P-41-1",          1052,       117.351,       163.337,            0.,NA,NA,"",   1.73441E+06,   1.85486E+06,   1.85486E+06
C:/temp/Job-41.odb,Step-1,Increment      1: Step Time =    1.000,"P-41-1",          1053,       29.8456,       53.5034,            0.,NA,NA,"",   1.04435E+06,   1.01052E+06,   1.01052E+06
C:/temp/Job-41.odb,Step-1,Increment      1: Step Time =    1.000,"P-41-1",          1054,       57.8136,       29.1601,            0.,NA,NA,"",   1.75320E+06,   1.65080E+06,   1.65080E+06
C:/temp/Job-41.odb,Step-1,Increment      1: Step Time =    1.000,"P-41-1",          1055,       150.653,       28.4885,            0.,NA,NA,"",   1.41323E+06,   1.35318E+06,   1.35318E+06
C:/temp/Job-41.odb,Step-1,Increment      1: Step Time =    1.000,"P-41-1",          1056,       28.5487,       140.033,            0.,NA,NA,"",   848.393E+03,   827.002E+03,   827.002E+03
C:/temp/Job-41.odb,Step-1,Increment      1: Step Time =    1.000,"P-41-1",          1057,       170.040,       145.764,            0.,NA,NA,"",   1.43463E+06,   1.33680E+06,   1.33680E+06
C:/temp/Job-41.odb,Step-1,Increment      1: Step Time =    1.000,"P-41-1",          1058,       141.556,       169.635,            0.,NA,NA,"",   1.50623E+06,   1.46106E+06,   1.46106E+06
C:/temp/Job-41.odb,Step-1,Increment      1: Step Time =    1.000,"P-41-1",          1059,       58.5309,       173.237,            0.,NA,NA,"",   1.74485E+06,   1.65311E+06,   1.65311E+06
C:/temp/Job-41.odb,Step-1,Increment      1: Step Time =    1.000,"P-41-1",          1060,       170.318,       58.7689,            0.,NA,NA,"",   1.42635E+06,   1.32481E+06,   1.32481E+06
C:/temp/Job-41.odb,Step-1,Increment      1: Step Time =    1.000,"P-41-1",          1061,       153.932,       8.07099,            0.,NA,NA,"",   1.00634E+06,   998.296E+03,   998.296E+03
C:/temp/Job-41.odb,Step-1,Increment      1: Step Time =    1.000,"P-41-1",          1062,       191.797,       153.849,            0.,NA,NA,"",   971.933E+03,   1.05268E+06,   1.05268E+06
C:/temp/Job-41.odb,Step-1,Increment      1: Step Time =    1.000,"P-41-1",          1063,       46.4164,       191.250,            0.,NA,NA,"",   1.69599E+06,   1.68120E+06,   1.68120E+06
C:/temp/Job-41.odb,Step-1,Increment      1: Step Time =    1.000,"P-41-1",          1064,       8.86791,       45.9173,            0.,NA,NA,"",   966.594E+03,   1.05301E+06,   1.05301E+06
C:/temp/Job-41.odb,Step-1,Increment      1: Step Time =    1.000,"P-41-1",          1065,       156.087,       57.3010,            0.,NA,NA,"",   1.72156E+06,   1.48617E+06,   1.48617E+06
C:/temp/Job-41.odb,Step-1,Increment      1: Step Time =    1.000,"P-41-1",          1066,       106.004,       33.2990,            0.,NA,NA,"",   1.63909E+06,   1.77813E+06,   1.77813E+06
C:/temp/Job-41.odb,Step-1,Increment      1: Step Time =    1.000,"P-41-1",          1067,       168.284,       110.296,            0.,NA,NA,"",   695.047E+03,   667.109E+03,   667.109E+03
C:/temp/Job-41.odb,Step-1,Increment      1: Step Time =    1.000,"P-41-1",          1068,       99.7627,       159.136,            0.,NA,NA,"",   2.10495E+06,   2.26958E+06,   2.26958E+06
C:/temp/Job-41.odb,Step-1,Increment      1: Step Time =    1.000,"P-41-1",          1069,       152.115,       152.016,            0.,NA,NA,"",   1.73219E+06,   1.56798E+06,   1.56798E+06
C:/temp/Job-41.odb,Step-1,Increment      1: Step Time =    1.000,"P-41-1",          1070,       141.364,       155.369,            0.,NA,NA,"",   1.82626E+06,   1.73257E+06,   1.73257E+06
C:/temp/Job-41.odb,Step-1,Increment      1: Step Time =    1.000,"P-41-1",          1071,       168.880,       68.5208,            0.,NA,NA,"",   1.37953E+06,   1.24270E+06,   1.24270E+06
C:/temp/Job-41.odb,Step-1,Increment      1: Step Time =    1.000,"P-41-1",          1072,       69.9893,       30.1240,            0.,NA,NA,"",   1.80066E+06,   1.72602E+06,   1.72602E+06
C:/temp/Job-41.odb,Step-1,Increment      1: Step Time =    1.000,"P-41-1",          1073,       128.852,       169.304,            0.,NA,NA,"",   1.52845E+06,   1.55527E+06,   1.55527E+06
C:/temp/Job-41.odb,Step-1,Increment      1: Step Time =    1.000,"P-41-1",          1074,       45.5081,       129.789,            0.,NA,NA,"",   728.833E+03,   558.133E+03,   558.133E+03
C:/temp/Job-41.odb,Step-1,Increment      1: Step Time =    1.000,"P-41-1",          1075,       49.3512,       138.012,            0.,NA,NA,"",   1.08697E+06,   911.712E+03,   911.712E+03
C:/temp/Job-41.odb,Step-1,Increment      1: Step Time =    1.000,"P-41-1",          1076,       23.0214,       90.7778,            0.,NA,NA,"",   149.758E+03,   167.884E+03,   167.884E+03
C:/temp/Job-41.odb,Step-1,Increment      1: Step Time =    1.000,"P-41-1",          1077,       108.012,       24.0862,            0.,NA,NA,"",   1.32120E+06,   1.41200E+06,   1.41200E+06
C:/temp/Job-41.odb,Step-1,Increment      1: Step Time =    1.000,"P-41-1",          1078,       29.1004,       102.557,            0.,NA,NA,"",   60.1857E+03,   51.6820E+03,   51.6820E+03
C:/temp/Job-41.odb,Step-1,Increment      1: Step Time =    1.000,"P-41-1",          1079,       98.0798,       28.8252,            0.,NA,NA,"",   1.55546E+06,   1.65560E+06,   1.65560E+06
C:/temp/Job-41.odb,Step-1,Increment      1: Step Time =    1.000,"P-41-1",          1080,       178.881,       109.980,            0.,NA,NA,"",   773.333E+03,   882.850E+03,   882.850E+03
C:/temp/Job-41.odb,Step-1,Increment      1: Step Time =    1.000,"P-41-1",          1081,       91.9564,       178.793,            0.,NA,NA,"",   1.39760E+06,   1.43253E+06,   1.43253E+06
C:/temp/Job-41.odb,Step-1,Increment      1: Step Time =    1.000,"P-41-1",          1082,       170.446,       101.957,            0.,NA,NA,"",   437.870E+03,   496.359E+03,   496.359E+03
C:/temp/Job-41.odb,Step-1,Increment      1: Step Time =    1.000,"P-41-1",          1083,       96.0028,       170.683,            0.,NA,NA,"",   1.59529E+06,   1.69067E+06,   1.69067E+06
C:/temp/Job-41.odb,Step-1,Increment      1: Step Time =    1.000,"P-41-1",          1084,       51.8225,       50.4042,            0.,NA,NA,"",   1.50413E+06,   1.34567E+06,   1.34567E+06
C:/temp/Job-41.odb,Step-1,Increment      1: Step Time =    1.000,"P-41-1",          1085,       161.451,       103.650,            0.,NA,NA,"",   432.183E+03,   28.4607E+03,   28.4607E+03
C:/temp/Job-41.odb,Step-1,Increment      1: Step Time =    1.000,"P-41-1",          1086,       164.102,       86.5786,            0.,NA,NA,"",   842.412E+03,   676.058E+03,   676.058E+03
C:/temp/Job-41.odb,Step-1,Increment      1: Step Time =    1.000,"P-41-1",          1087,       162.937,       79.6449,            0.,NA,NA,"",   1.16318E+06,   927.184E+03,   927.184E+03
C:/temp/Job-41.odb,Step-1,Increment      1: Step Time =    1.000,"P-41-1",          1088,       189.821,       45.8115,            0.,NA,NA,"",   1.00338E+06,   1.07386E+06,   1.07386E+06
C:/temp/Job-41.odb,Step-1,Increment      1: Step Time =    1.000,"P-41-1",          1089,       154.206,       189.617,            0.,NA,NA,"",   1.04480E+06,   1.03265E+06,   1.03265E+06
C:/temp/Job-41.odb,Step-1,Increment      1: Step Time =    1.000,"P-41-1",          1090,       45.6493,       10.5350,            0.,NA,NA,"",   1.69795E+06,   1.67888E+06,   1.67888E+06
C:/temp/Job-41.odb,Step-1,Increment      1: Step Time =    1.000,"P-41-1",          1091,       10.4771,       154.208,            0.,NA,NA,"",   982.306E+03,   1.06242E+06,   1.06242E+06
C:/temp/Job-41.odb,Step-1,Increment      1: Step Time =    1.000,"P-41-1",          1092,       102.659,       163.021,            0.,NA,NA,"",   1.85486E+06,   2.01119E+06,   2.01119E+06
C:/temp/Job-41.odb,Step-1,Increment      1: Step Time =    1.000,"P-41-1",          1093,       110.790,       165.962,            0.,NA,NA,"",   1.65177E+06,   1.79268E+06,   1.79268E+06
C:/temp/Job-41.odb,Step-1,Increment      1: Step Time =    1.000,"P-41-1",          1094,       52.5274,       48.3647,            0.,NA,NA,"",   1.53999E+06,   1.38596E+06,   1.38596E+06
C:/temp/Job-41.odb,Step-1,Increment      1: Step Time =    1.000,"P-41-1",          1095,       43.7897,       59.0598,            0.,NA,NA,"",   1.09447E+06,   959.461E+03,   959.461E+03
C:/temp/Job-41.odb,Step-1,Increment      1: Step Time =    1.000,"P-41-1",          1096,       160.304,       131.002,            0.,NA,NA,"",   1.51879E+06,   1.24327E+06,   1.24327E+06
C:/temp/Job-41.odb,Step-1,Increment      1: Step Time =    1.000,"P-41-1",          1097,       60.2148,       46.2627,            0.,NA,NA,"",   1.72010E+06,   1.56971E+06,   1.56971E+06
C:/temp/Job-41.odb,Step-1,Increment      1: Step Time =    1.000,"P-41-1",          1098,       36.1699,       84.6456,            0.,NA,NA,"",   251.566E+03,   57.2909E+03,   57.2909E+03
C:/temp/Job-41.odb,Step-1,Increment      1: Step Time =    1.000,"P-41-1",          1099,       35.8685,       95.9526,            0.,NA,NA,"",   85.9699E+03,  -84.5945E+03,  -84.5945E+03
C:/temp/Job-41.odb,Step-1,Increment      1: Step Time =    1.000,"P-41-1",          1100,       106.117,       27.1976,            0.,NA,NA,"",   1.42482E+06,   1.52887E+06,   1.52887E+06
C:/temp/Job-41.odb,Step-1,Increment      1: Step Time =    1.000,"P-41-1",          1101,       129.012,       163.280,            0.,NA,NA,"",   1.71035E+06,   1.74330E+06,   1.74330E+06
C:/temp/Job-41.odb,Step-1,Increment      1: Step Time =    1.000,"P-41-1",          1102,       135.536,       163.247,            0.,NA,NA,"",   1.69580E+06,   1.67197E+06,   1.67197E+06
C:/temp/Job-41.odb,Step-1,Increment      1: Step Time =    1.000,"P-41-1",          1103,       127.625,       25.0403,            0.,NA,NA,"",   1.36436E+06,   1.39064E+06,   1.39064E+06
C:/temp/Job-41.odb,Step-1,Increment      1: Step Time =    1.000,"P-41-1",          1104,       73.6563,       176.243,            0.,NA,NA,"",   1.67391E+06,   1.62376E+06,   1.62376E+06
C:/temp/Job-41.odb,Step-1,Increment      1: Step Time =    1.000,"P-41-1",          1105,       23.9453,       72.2344,            0.,NA,NA,"",   466.802E+03,   478.565E+03,   478.565E+03
C:/temp/Job-41.odb,Step-1,Increment      1: Step Time =    1.000,"P-41-1",          1106,       175.459,       127.358,            0.,NA,NA,"",   1.18920E+06,   1.17724E+06,   1.17724E+06
C:/temp/Job-41.odb,Step-1,Increment      1: Step Time =    1.000,"P-41-1",          1107,       85.8337,       164.672,            0.,NA,NA,"",   1.86696E+06,   1.91414E+06,   1.91414E+06
C:/temp/Job-41.odb,Step-1,Increment      1: Step Time =    1.000,"P-41-1",          1108,       77.8180,       160.729,            0.,NA,NA,"",   1.95342E+06,   1.93236E+06,   1.93236E+06
C:/temp/Job-41.odb,Step-1,Increment      1: Step Time =    1.000,"P-41-1",          1109,       123.668,       155.978,            0.,NA,NA,"",   1.98643E+06,   2.07222E+06,   2.07222E+06
C:/temp/Job-41.odb,Step-1,Increment      1: Step Time =    1.000,"P-41-1",          1110,       51.9230,       23.4525,            0.,NA,NA,"",   1.70541E+06,   1.62933E+06,   1.62933E+06
C:/temp/Job-41.odb,Step-1,Increment      1: Step Time =    1.000,"P-41-1",          1111,       25.6423,       53.1428,            0.,NA,NA,"",   991.597E+03,   986.341E+03,   986.341E+03
C:/temp/Job-41.odb,Step-1,Increment      1: Step Time =    1.000,"P-41-1",          1112,       24.3673,       148.468,            0.,NA,NA,"",   1.01003E+06,   1.01401E+06,   1.01401E+06
C:/temp/Job-41.odb,Step-1,Increment      1: Step Time =    1.000,"P-41-1",          1113,       146.234,       24.8322,            0.,NA,NA,"",    1.3562E+06,   1.31272E+06,   1.31272E+06
C:/temp/Job-41.odb,Step-1,Increment      1: Step Time =    1.000,"P-41-1",          1114,       175.208,       149.024,            0.,NA,NA,"",   1.30284E+06,   1.26853E+06,   1.26853E+06
C:/temp/Job-41.odb,Step-1,Increment      1: Step Time =    1.000,"P-41-1",          1115,       145.452,       177.677,            0.,NA,NA,"",   1.29403E+06,   1.25755E+06,   1.25755E+06
C:/temp/Job-41.odb,Step-1,Increment      1: Step Time =    1.000,"P-41-1",          1116,       175.963,       55.0522,            0.,NA,NA,"",   1.29844E+06,   1.26948E+06,   1.26948E+06
C:/temp/Job-41.odb,Step-1,Increment      1: Step Time =    1.000,"P-41-1",          1117,       54.7579,       172.706,            0.,NA,NA,"",   1.73441E+06,   1.64181E+06,   1.64181E+06
C:/temp/Job-41.odb,Step-1,Increment      1: Step Time =    1.000,"P-41-1",          1118,       86.0976,       35.2478,            0.,NA,NA,"",   1.86258E+06,   1.91014E+06,   1.91014E+06
C:/temp/Job-41.odb,Step-1,Increment      1: Step Time =    1.000,"P-41-1",          1119,       111.697,       36.2260,            0.,NA,NA,"",   1.75131E+06,   1.89845E+06,   1.89845E+06
C:/temp/Job-41.odb,Step-1,Increment      1: Step Time =    1.000,"P-41-1",          1120,       153.311,       146.904,            0.,NA,NA,"",   1.75576E+06,   1.55173E+06,   1.55173E+06
C:/temp/Job-41.odb,Step-1,Increment      1: Step Time =    1.000,"P-41-1",          1121,       51.2211,       141.875,            0.,NA,NA,"",   1.25671E+06,   1.08164E+06,   1.08164E+06
C:/temp/Job-41.odb,Step-1,Increment      1: Step Time =    1.000,"P-41-1",          1122,       162.540,       76.3410,            0.,NA,NA,"",   1.28674E+06,   1.03240E+06,   1.03240E+06
C:/temp/Job-41.odb,Step-1,Increment      1: Step Time =    1.000,"P-41-1",          1123,       185.137,       46.8380,            0.,NA,NA,"",   1.08926E+06,   1.13430E+06,   1.13430E+06
C:/temp/Job-41.odb,Step-1,Increment      1: Step Time =    1.000,"P-41-1",          1124,       153.050,       184.904,            0.,NA,NA,"",   1.12831E+06,   1.10644E+06,   1.10644E+06
C:/temp/Job-41.odb,Step-1,Increment      1: Step Time =    1.000,"P-41-1",          1125,       46.6094,       15.4960,            0.,NA,NA,"",   1.69210E+06,   1.65532E+06,   1.65532E+06
C:/temp/Job-41.odb,Step-1,Increment      1: Step Time =    1.000,"P-41-1",          1126,       15.3881,       153.207,            0.,NA,NA,"",   1.01774E+06,   1.07378E+06,   1.07378E+06
C:/temp/Job-41.odb,Step-1,Increment      1: Step Time =    1.000,"P-41-1",          1127,       164.650,       137.476,            0.,NA,NA,"",   1.53260E+06,   1.34488E+06,   1.34488E+06
C:/temp/Job-41.odb,Step-1,Increment      1: Step Time =    1.000,"P-41-1",          1128,       64.8899,       50.2645,            0.,NA,NA,"",   1.71126E+06,   1.58126E+06,   1.58126E+06
C:/temp/Job-41.odb,Step-1,Increment      1: Step Time =    1.000,"P-41-1",          1129,       56.2370,       45.9689,            0.,NA,NA,"",   1.65598E+06,   1.50009E+06,   1.50009E+06
C:/temp/Job-41.odb,Step-1,Increment      1: Step Time =    1.000,"P-41-1",          1130,       34.4753,       90.0981,            0.,NA,NA,"",   142.112E+03,  -2.61169E+03,  -2.61169E+03
C:/temp/Job-41.odb,Step-1,Increment      1: Step Time =    1.000,"P-41-1",          1131,       38.7841,       98.5535,            0.,NA,NA,"",   132.887E+03,  -149.764E+03,  -149.764E+03
C:/temp/Job-41.odb,Step-1,Increment      1: Step Time =    1.000,"P-41-1",          1132,       161.664,       57.0383,            0.,NA,NA,"",   1.61348E+06,   1.42046E+06,   1.42046E+06
C:/temp/Job-41.odb,Step-1,Increment      1: Step Time =    1.000,"P-41-1",          1133,       167.131,       79.0573,            0.,NA,NA,"",   1.13575E+06,   995.209E+03,   995.209E+03
C:/temp/Job-41.odb,Step-1,Increment      1: Step Time =    1.000,"P-41-1",          1134,       166.100,       133.141,            0.,NA,NA,"",   1.45623E+06,   1.27741E+06,   1.27741E+06
C:/temp/Job-41.odb,Step-1,Increment      1: Step Time =    1.000,"P-41-1",          1135,       30.2444,       90.0564,            0.,NA,NA,"",   137.435E+03,   121.558E+03,   121.558E+03
C:/temp/Job-41.odb,Step-1,Increment      1: Step Time =    1.000,"P-41-1",          1136,       173.459,       109.853,            0.,NA,NA,"",   712.875E+03,   774.540E+03,   774.540E+03
C:/temp/Job-41.odb,Step-1,Increment      1: Step Time =    1.000,"P-41-1",          1137,       86.1800,       170.894,            0.,NA,NA,"",   1.69433E+06,   1.72285E+06,   1.72285E+06
C:/temp/Job-41.odb,Step-1,Increment      1: Step Time =    1.000,"P-41-1",          1138,       39.0178,       61.8812,            0.,NA,NA,"",   935.783E+03,   836.751E+03,   836.751E+03
C:/temp/Job-41.odb,Step-1,Increment      1: Step Time =    1.000,"P-41-1",          1139,       167.127,       104.174,            0.,NA,NA,"",   446.294E+03,   453.054E+03,   453.054E+03
C:/temp/Job-41.odb,Step-1,Increment      1: Step Time =    1.000,"P-41-1",          1140,       99.1765,       166.657,            0.,NA,NA,"",   1.70954E+06,   1.83938E+06,   1.83938E+06
C:/temp/Job-41.odb,Step-1,Increment      1: Step Time =    1.000,"P-41-1",          1141,       32.7379,       99.1524,            0.,NA,NA,"",   45.4417E+03,  -22.7993E+03,  -22.7993E+03
C:/temp/Job-41.odb,Step-1,Increment      1: Step Time =    1.000,"P-41-1",          1142,       99.6623,       34.2304,            0.,NA,NA,"",   1.74582E+06,   1.88011E+06,   1.88011E+06
C:/temp/Job-41.odb,Step-1,Increment      1: Step Time =    1.000,"P-41-1",          1143,       34.9889,       113.229,            0.,NA,NA,"",   202.648E+03,   34.8641E+03,   34.8641E+03
C:/temp/Job-41.odb,Step-1,Increment      1: Step Time =    1.000,"P-41-1",          1144,       40.5901,       131.006,            0.,NA,NA,"",   722.024E+03,   603.173E+03,   603.173E+03
C:/temp/Job-41.odb,Step-1,Increment      1: Step Time =    1.000,"P-41-1",          1145,       137.975,       154.257,            0.,NA,NA,"",   1.87337E+06,   1.80315E+06,   1.80315E+06
C:/temp/Job-41.odb,Step-1,Increment      1: Step Time =    1.000,"P-41-1",          1146,       81.9547,       36.8440,            0.,NA,NA,"",   1.92066E+06,   1.93666E+06,   1.93666E+06
C:/temp/Job-41.odb,Step-1,Increment      1: Step Time =    1.000,"P-41-1",          1147,       24.8067,       152.556,            0.,NA,NA,"",   1.11488E+06,   1.11576E+06,   1.11576E+06
C:/temp/Job-41.odb,Step-1,Increment      1: Step Time =    1.000,"P-41-1",          1148,       153.807,       23.4072,            0.,NA,NA,"",   1.28573E+06,   1.24173E+06,   1.24173E+06
C:/temp/Job-41.odb,Step-1,Increment      1: Step Time =    1.000,"P-41-1",          1149,       176.330,       51.1237,            0.,NA,NA,"",   1.27964E+06,   1.25641E+06,   1.25641E+06
C:/temp/Job-41.odb,Step-1,Increment      1: Step Time =    1.000,"P-41-1",          1150,       48.0551,       175.660,            0.,NA,NA,"",   1.70018E+06,   1.62634E+06,   1.62634E+06
C:/temp/Job-41.odb,Step-1,Increment      1: Step Time =    1.000,"P-41-1",          1151,       47.8928,       24.8283,            0.,NA,NA,"",   1.69334E+06,   1.62048E+06,   1.62048E+06
C:/temp/Job-41.odb,Step-1,Increment      1: Step Time =    1.000,"P-41-1",          1152,       25.9569,       49.3477,            0.,NA,NA,"",   1.09971E+06,   1.09106E+06,   1.09106E+06
C:/temp/Job-41.odb,Step-1,Increment      1: Step Time =    1.000,"P-41-1",          1153,       150.533,       176.638,            0.,NA,NA,"",   1.29890E+06,   1.25638E+06,   1.25638E+06
C:/temp/Job-41.odb,Step-1,Increment      1: Step Time =    1.000,"P-41-1",          1154,       176.154,       152.464,            0.,NA,NA,"",   1.26984E+06,   1.24676E+06,   1.24676E+06
C:/temp/Job-41.odb,Step-1,Increment      1: Step Time =    1.000,"P-41-1",          1155,       164.583,       100.987,            0.,NA,NA,"",   358.261E+03,   219.831E+03,   219.831E+03
C:/temp/Job-41.odb,Step-1,Increment      1: Step Time =    1.000,"P-41-1",          1156,       90.3734,       161.896,            0.,NA,NA,"",   1.93893E+06,   2.03486E+06,   2.03486E+06
C:/temp/Job-41.odb,Step-1,Increment      1: Step Time =    1.000,"P-41-1",          1157,       138.820,       159.615,            0.,NA,NA,"",   1.76085E+06,   1.70097E+06,   1.70097E+06
C:/temp/Job-41.odb,Step-1,Increment      1: Step Time =    1.000,"P-41-1",          1158,       19.3165,       77.1327,            0.,NA,NA,"",   348.864E+03,   376.584E+03,   376.584E+03
C:/temp/Job-41.odb,Step-1,Increment      1: Step Time =    1.000,"P-41-1",          1159,       122.988,       19.7349,            0.,NA,NA,"",   1.20042E+06,   1.23404E+06,   1.23404E+06
C:/temp/Job-41.odb,Step-1,Increment      1: Step Time =    1.000,"P-41-1",          1160,       180.236,       122.189,            0.,NA,NA,"",   1.03989E+06,   1.11886E+06,   1.11886E+06
C:/temp/Job-41.odb,Step-1,Increment      1: Step Time =    1.000,"P-41-1",          1161,       78.8978,       179.753,            0.,NA,NA,"",   1.54695E+06,   1.52008E+06,   1.52008E+06
C:/temp/Job-41.odb,Step-1,Increment      1: Step Time =    1.000,"P-41-1",          1162,       119.926,       33.5681,            0.,NA,NA,"",   1.60733E+06,   1.70000E+06,   1.70000E+06
C:/temp/Job-41.odb,Step-1,Increment      1: Step Time =    1.000,"P-41-1",          1163,       133.631,       29.1858,            0.,NA,NA,"",   1.48386E+06,   1.48007E+06,   1.48007E+06
C:/temp/Job-41.odb,Step-1,Increment      1: Step Time =    1.000,"P-41-1",          1164,       69.2343,       174.217,            0.,NA,NA,"",   1.73504E+06,   1.66439E+06,   1.66439E+06
C:/temp/Job-41.odb,Step-1,Increment      1: Step Time =    1.000,"P-41-1",          1165,       28.1084,       69.7380,            0.,NA,NA,"",   566.770E+03,   550.975E+03,   550.975E+03
C:/temp/Job-41.odb,Step-1,Increment      1: Step Time =    1.000,"P-41-1",          1166,       172.800,       131.100,            0.,NA,NA,"",   1.29902E+06,   1.22963E+06,   1.22963E+06
C:/temp/Job-41.odb,Step-1,Increment      1: Step Time =    1.000,"P-41-1",          1167,       144.475,       49.5228,            0.,NA,NA,"",   1.84971E+06,   1.70413E+06,   1.70413E+06
C:/temp/Job-41.odb,Step-1,Increment      1: Step Time =    1.000,"P-41-1",          1168,       153.878,       45.8426,            0.,NA,NA,"",   1.68630E+06,   1.53800E+06,   1.53800E+06
C:/temp/Job-41.odb,Step-1,Increment      1: Step Time =    1.000,"P-41-1",          1169,       77.3072,       165.832,            0.,NA,NA,"",   1.86946E+06,   1.83869E+06,   1.83869E+06
C:/temp/Job-41.odb,Step-1,Increment      1: Step Time =    1.000,"P-41-1",          1170,       46.6686,       143.598,            0.,NA,NA,"",   1.24004E+06,   1.08855E+06,   1.08855E+06
C:/temp/Job-41.odb,Step-1,Increment      1: Step Time =    1.000,"P-41-1",          1171,       163.529,       71.0894,            0.,NA,NA,"",   1.42482E+06,   1.19019E+06,   1.19019E+06
C:/temp/Job-41.odb,Step-1,Increment      1: Step Time =    1.000,"P-41-1",          1172,       180.706,       47.4620,            0.,NA,NA,"",   1.18246E+06,   1.19490E+06,   1.19490E+06
C:/temp/Job-41.odb,Step-1,Increment      1: Step Time =    1.000,"P-41-1",          1173,       152.053,       180.537,            0.,NA,NA,"",   1.21775E+06,   1.18489E+06,   1.18489E+06
C:/temp/Job-41.odb,Step-1,Increment      1: Step Time =    1.000,"P-41-1",          1174,       47.2458,       20.2077,            0.,NA,NA,"",   1.69150E+06,   1.63649E+06,   1.63649E+06
C:/temp/Job-41.odb,Step-1,Increment      1: Step Time =    1.000,"P-41-1",          1175,       20.1500,       152.683,            0.,NA,NA,"",   1.06109E+06,   1.09066E+06,   1.09066E+06
C:/temp/Job-41.odb,Step-1,Increment      1: Step Time =    1.000,"P-41-1",          1176,       102.016,       41.7013,            0.,NA,NA,"",   2.15192E+06,   2.32052E+06,   2.32052E+06
C:/temp/Job-41.odb,Step-1,Increment      1: Step Time =    1.000,"P-41-1",          1177,       164.514,       142.125,            0.,NA,NA,"",   1.55924E+06,   1.38724E+06,   1.38724E+06
C:/temp/Job-41.odb,Step-1,Increment      1: Step Time =    1.000,"P-41-1",          1178,       69.1468,       45.9282,            0.,NA,NA,"",   1.87208E+06,   1.77906E+06,   1.77906E+06
C:/temp/Job-41.odb,Step-1,Increment      1: Step Time =    1.000,"P-41-1",          1179,       65.4377,       53.4602,            0.,NA,NA,"",   1.62856E+06,   1.50266E+06,   1.50266E+06
C:/temp/Job-41.odb,Step-1,Increment      1: Step Time =    1.000,"P-41-1",          1180,       36.0156,       102.189,            0.,NA,NA,"",   82.6293E+03,  -89.2944E+03,  -89.2944E+03
C:/temp/Job-41.odb,Step-1,Increment      1: Step Time =    1.000,"P-41-1",          1181,       44.1190,       97.1776,            0.,NA,NA,"",   290.261E+03,  -322.027E+03,  -322.027E+03
C:/temp/Job-41.odb,Step-1,Increment      1: Step Time =    1.000,"P-41-1",          1182,       35.5172,       65.1746,            0.,NA,NA,"",   789.780E+03,   720.756E+03,   720.756E+03
C:/temp/Job-41.odb,Step-1,Increment      1: Step Time =    1.000,"P-41-1",          1183,       39.4593,       126.368,            0.,NA,NA,"",   565.754E+03,   451.573E+03,   451.573E+03
C:/temp/Job-41.odb,Step-1,Increment      1: Step Time =    1.000,"P-41-1",          1184,       36.1713,       78.9470,            0.,NA,NA,"",   391.112E+03,   307.173E+03,   307.173E+03
C:/temp/Job-41.odb,Step-1,Increment      1: Step Time =    1.000,"P-41-1",          1185,       184.212,       43.2948,            0.,NA,NA,"",   1.09634E+06,   1.12903E+06,   1.12903E+06
C:/temp/Job-41.odb,Step-1,Increment      1: Step Time =    1.000,"P-41-1",          1186,       156.552,       183.705,            0.,NA,NA,"",   1.13961E+06,   1.11646E+06,   1.11646E+06
C:/temp/Job-41.odb,Step-1,Increment      1: Step Time =    1.000,"P-41-1",          1187,       42.7669,       16.4245,            0.,NA,NA,"",   1.70498E+06,   1.67118E+06,   1.67118E+06
C:/temp/Job-41.odb,Step-1,Increment      1: Step Time =    1.000,"P-41-1",          1188,       16.2322,       156.851,            0.,NA,NA,"",   1.11015E+06,   1.16489E+06,   1.16489E+06
C:/temp/Job-41.odb,Step-1,Increment      1: Step Time =    1.000,"P-41-1",          1189,       118.642,       166.408,            0.,NA,NA,"",   1.60735E+06,   1.70636E+06,   1.70636E+06
C:/temp/Job-41.odb,Step-1,Increment      1: Step Time =    1.000,"P-41-1",          1190,       77.5489,       34.4715,            0.,NA,NA,"",   1.87369E+06,   1.84537E+06,   1.84537E+06
C:/temp/Job-41.odb,Step-1,Increment      1: Step Time =    1.000,"P-41-1",          1191,       36.2281,       120.200,            0.,NA,NA,"",   365.221E+03,   280.934E+03,   280.934E+03
C:/temp/Job-41.odb,Step-1,Increment      1: Step Time =    1.000,"P-41-1",          1192,       151.267,       156.947,            0.,NA,NA,"",   1.68366E+06,   1.55255E+06,   1.55255E+06
C:/temp/Job-41.odb,Step-1,Increment      1: Step Time =    1.000,"P-41-1",          1193,       39.0452,       115.552,            0.,NA,NA,"",   274.329E+03,   2.25486E+03,   2.25486E+03
C:/temp/Job-41.odb,Step-1,Increment      1: Step Time =    1.000,"P-41-1",          1194,       68.0072,       35.4461,            0.,NA,NA,"",   1.85493E+06,   1.76122E+06,   1.76122E+06
C:/temp/Job-41.odb,Step-1,Increment      1: Step Time =    1.000,"P-41-1",          1195,       35.5381,       132.349,            0.,NA,NA,"",   711.170E+03,   638.731E+03,   638.731E+03
C:/temp/Job-41.odb,Step-1,Increment      1: Step Time =    1.000,"P-41-1",          1196,       166.744,       53.3040,            0.,NA,NA,"",   1.50833E+06,   1.37741E+06,   1.37741E+06
C:/temp/Job-41.odb,Step-1,Increment      1: Step Time =    1.000,"P-41-1",          1197,       138.528,       166.379,            0.,NA,NA,"",   1.59976E+06,   1.56153E+06,   1.56153E+06
C:/temp/Job-41.odb,Step-1,Increment      1: Step Time =    1.000,"P-41-1",          1198,       49.6186,       47.7953,            0.,NA,NA,"",   1.50496E+06,   1.35916E+06,   1.35916E+06
C:/temp/Job-41.odb,Step-1,Increment      1: Step Time =    1.000,"P-41-1",          1199,       44.7024,       139.717,            0.,NA,NA,"",   1.08336E+06,   939.593E+03,   939.593E+03
C:/temp/Job-41.odb,Step-1,Increment      1: Step Time =    1.000,"P-41-1",          1200,       162.583,       61.0353,            0.,NA,NA,"",   1.58825E+06,   1.37851E+06,   1.37851E+06
C:/temp/Job-41.odb,Step-1,Increment      1: Step Time =    1.000,"P-41-1",          1201,       157.023,       153.397,            0.,NA,NA,"",   1.64140E+06,   1.49091E+06,   1.49091E+06
C:/temp/Job-41.odb,Step-1,Increment      1: Step Time =    1.000,"P-41-1",          1202,       73.7357,       45.9011,            0.,NA,NA,"",   1.93965E+06,   1.89221E+06,   1.89221E+06
C:/temp/Job-41.odb,Step-1,Increment      1: Step Time =    1.000,"P-41-1",          1203,       151.383,       160.597,            0.,NA,NA,"",   1.63122E+06,   1.52026E+06,   1.52026E+06
C:/temp/Job-41.odb,Step-1,Increment      1: Step Time =    1.000,"P-41-1",          1204,       68.6481,       41.0856,            0.,NA,NA,"",   1.88144E+06,   1.78533E+06,   1.78533E+06
C:/temp/Job-41.odb,Step-1,Increment      1: Step Time =    1.000,"P-41-1",          1205,       78.0053,       41.3505,            0.,NA,NA,"",   1.97236E+06,   1.95883E+06,   1.95883E+06
C:/temp/Job-41.odb,Step-1,Increment      1: Step Time =    1.000,"P-41-1",          1206,       149.506,       20.3875,            0.,NA,NA,"",   1.24382E+06,   1.20890E+06,   1.20890E+06
C:/temp/Job-41.odb,Step-1,Increment      1: Step Time =    1.000,"P-41-1",          1207,       28.8281,       148.343,            0.,NA,NA,"",   1.06467E+06,   1.04032E+06,   1.04032E+06
C:/temp/Job-41.odb,Step-1,Increment      1: Step Time =    1.000,"P-41-1",          1208,       171.989,       50.2841,            0.,NA,NA,"",   1.37449E+06,   1.30890E+06,   1.30890E+06
C:/temp/Job-41.odb,Step-1,Increment      1: Step Time =    1.000,"P-41-1",          1209,       47.7643,       181.679,            0.,NA,NA,"",   1.69197E+06,   1.64280E+06,   1.64280E+06
C:/temp/Job-41.odb,Step-1,Increment      1: Step Time =    1.000,"P-41-1",          1210,       21.5902,       52.3123,            0.,NA,NA,"",   954.803E+03,   974.784E+03,   974.784E+03
C:/temp/Job-41.odb,Step-1,Increment      1: Step Time =    1.000,"P-41-1",          1211,       53.6747,       26.4600,            0.,NA,NA,"",   1.72301E+06,   1.63344E+06,   1.63344E+06
C:/temp/Job-41.odb,Step-1,Increment      1: Step Time =    1.000,"P-41-1",          1212,       179.225,       148.721,            0.,NA,NA,"",   1.21714E+06,   1.22211E+06,   1.22211E+06
C:/temp/Job-41.odb,Step-1,Increment      1: Step Time =    1.000,"P-41-1",          1213,       148.965,       170.216,            0.,NA,NA,"",   1.45166E+06,   1.38986E+06,   1.38986E+06
C:/temp/Job-41.odb,Step-1,Increment      1: Step Time =    1.000,"P-41-1",          1214,       91.0568,       157.560,            0.,NA,NA,"",   2.12441E+06,   2.24533E+06,   2.24533E+06
C:/temp/Job-41.odb,Step-1,Increment      1: Step Time =    1.000,"P-41-1",          1215,       49.6145,       40.5320,            0.,NA,NA,"",   1.63182E+06,   1.50337E+06,   1.50337E+06
C:/temp/Job-41.odb,Step-1,Increment      1: Step Time =    1.000,"P-41-1",          1216,       37.5162,       108.851,            0.,NA,NA,"",   158.551E+03,  -140.442E+03,  -140.442E+03
C:/temp/Job-41.odb,Step-1,Increment      1: Step Time =    1.000,"P-41-1",          1217,       46.7195,       46.0932,            0.,NA,NA,"",   1.49638E+06,   1.36313E+06,   1.36313E+06
C:/temp/Job-41.odb,Step-1,Increment      1: Step Time =    1.000,"P-41-1",          1218,       159.417,       142.264,            0.,NA,NA,"",   1.65773E+06,   1.44208E+06,   1.44208E+06
C:/temp/Job-41.odb,Step-1,Increment      1: Step Time =    1.000,"P-41-1",          1219,       33.3048,       62.2058,            0.,NA,NA,"",   843.368E+03,   788.435E+03,   788.435E+03
C:/temp/Job-41.odb,Step-1,Increment      1: Step Time =    1.000,"P-41-1",          1220,       40.2946,       121.810,            0.,NA,NA,"",   435.097E+03,   304.523E+03,   304.523E+03
C:/temp/Job-41.odb,Step-1,Increment      1: Step Time =    1.000,"P-41-1",          1221,       185.798,       36.0537,            0.,NA,NA,"",   1.05717E+06,   1.08523E+06,   1.08523E+06
C:/temp/Job-41.odb,Step-1,Increment      1: Step Time =    1.000,"P-41-1",          1222,       163.991,       185.336,            0.,NA,NA,"",   1.09945E+06,   1.08396E+06,   1.08396E+06
C:/temp/Job-41.odb,Step-1,Increment      1: Step Time =    1.000,"P-41-1",          1223,       35.4228,       14.1204,            0.,NA,NA,"",   1.74105E+06,   1.72145E+06,   1.72145E+06
C:/temp/Job-41.odb,Step-1,Increment      1: Step Time =    1.000,"P-41-1",          1224,       14.4015,       164.045,            0.,NA,NA,"",   1.23937E+06,   1.30877E+06,   1.30877E+06
C:/temp/Job-41.odb,Step-1,Increment      1: Step Time =    1.000,"P-41-1",          1225,       162.587,       49.8879,            0.,NA,NA,"",   1.58422E+06,   1.43542E+06,   1.43542E+06
C:/temp/Job-41.odb,Step-1,Increment      1: Step Time =    1.000,"P-41-1",          1226,       166.485,       60.0168,            0.,NA,NA,"",   1.50824E+06,   1.35266E+06,   1.35266E+06
C:/temp/Job-41.odb,Step-1,Increment      1: Step Time =    1.000,"P-41-1",          1227,       40.3100,       141.556,            0.,NA,NA,"",   1.06774E+06,   959.575E+03,   959.575E+03
C:/temp/Job-41.odb,Step-1,Increment      1: Step Time =    1.000,"P-41-1",          1228,       38.0593,       137.100,            0.,NA,NA,"",   894.074E+03,   802.858E+03,   802.858E+03
C:/temp/Job-41.odb,Step-1,Increment      1: Step Time =    1.000,"P-41-1",          1229,       176.762,       47.6707,            0.,NA,NA,"",   1.26239E+06,   1.24308E+06,   1.24308E+06
C:/temp/Job-41.odb,Step-1,Increment      1: Step Time =    1.000,"P-41-1",          1230,       121.778,       30.0929,            0.,NA,NA,"",   1.50263E+06,   1.57581E+06,   1.57581E+06
C:/temp/Job-41.odb,Step-1,Increment      1: Step Time =    1.000,"P-41-1",          1231,       149.626,       42.6033,            0.,NA,NA,"",   1.70197E+06,   1.57576E+06,   1.57576E+06
C:/temp/Job-41.odb,Step-1,Increment      1: Step Time =    1.000,"P-41-1",          1232,       73.2549,       36.7247,            0.,NA,NA,"",   1.89714E+06,   1.83572E+06,   1.83572E+06
C:/temp/Job-41.odb,Step-1,Increment      1: Step Time =    1.000,"P-41-1",          1233,       63.4243,       37.1866,            0.,NA,NA,"",   1.82828E+06,   1.70956E+06,   1.70956E+06
C:/temp/Job-41.odb,Step-1,Increment      1: Step Time =    1.000,"P-41-1",          1234,       155.621,       38.6742,            0.,NA,NA,"",   1.55002E+06,   1.44688E+06,   1.44688E+06
C:/temp/Job-41.odb,Step-1,Increment      1: Step Time =    1.000,"P-41-1",          1235,       67.5111,       169.772,            0.,NA,NA,"",   1.80606E+06,   1.71899E+06,   1.71899E+06
C:/temp/Job-41.odb,Step-1,Increment      1: Step Time =    1.000,"P-41-1",          1236,       122.232,       40.1008,            0.,NA,NA,"",   1.84489E+06,   1.94028E+06,   1.94028E+06
C:/temp/Job-41.odb,Step-1,Increment      1: Step Time =    1.000,"P-41-1",          1237,       142.143,       162.369,            0.,NA,NA,"",   1.67703E+06,   1.60631E+06,   1.60631E+06
C:/temp/Job-41.odb,Step-1,Increment      1: Step Time =    1.000,"P-41-1",          1238,       58.2235,       33.9460,            0.,NA,NA,"",   1.78339E+06,   1.66242E+06,   1.66242E+06
C:/temp/Job-41.odb,Step-1,Increment      1: Step Time =    1.000,"P-41-1",          1239,       34.2152,       139.052,            0.,NA,NA,"",   896.781E+03,   834.269E+03,   834.269E+03
C:/temp/Job-41.odb,Step-1,Increment      1: Step Time =    1.000,"P-41-1",          1240,       152.123,       166.050,            0.,NA,NA,"",   1.51188E+06,   1.42974E+06,   1.42974E+06
C:/temp/Job-41.odb,Step-1,Increment      1: Step Time =    1.000,"P-41-1",          1241,       49.4008,       29.7214,            0.,NA,NA,"",   1.70112E+06,   1.60569E+06,   1.60569E+06
C:/temp/Job-41.odb,Step-1,Increment      1: Step Time =    1.000,"P-41-1",          1242,       33.0535,       148.093,            0.,NA,NA,"",   1.12301E+06,   1.07051E+06,   1.07051E+06
C:/temp/Job-41.odb,Step-1,Increment      1: Step Time =    1.000,"P-41-1",          1243,       167.091,       48.6244,            0.,NA,NA,"",   1.48050E+06,   1.37240E+06,   1.37240E+06
C:/temp/Job-41.odb,Step-1,Increment      1: Step Time =    1.000,"P-41-1",          1244,       24.3865,       160.730,            0.,NA,NA,"",   1.29932E+06,   1.30473E+06,   1.30473E+06
C:/temp/Job-41.odb,Step-1,Increment      1: Step Time =    1.000,"P-41-1",          1245,       174.578,       40.6280,            0.,NA,NA,"",   1.25758E+06,   1.23031E+06,   1.23031E+06
C:/temp/Job-41.odb,Step-1,Increment      1: Step Time =    1.000,"P-41-1",          1246,       38.1077,       25.1662,            0.,NA,NA,"",   1.65632E+06,   1.60729E+06,   1.60729E+06
C:/temp/Job-41.odb,Step-1,Increment      1: Step Time =    1.000,"P-41-1",          1247,       160.072,       174.686,            0.,NA,NA,"",   1.27257E+06,   1.22889E+06,   1.22889E+06
C:/temp/Job-41.odb,Step-1,Increment      1: Step Time =    1.000,"P-41-1",          1248,       53.8089,       34.9349,            0.,NA,NA,"",   1.73363E+06,   1.61230E+06,   1.61230E+06
C:/temp/Job-41.odb,Step-1,Increment      1: Step Time =    1.000,"P-41-1",          1249,       42.0132,       111.342,            0.,NA,NA,"",   256.536E+03,  -242.564E+03,  -242.564E+03
C:/temp/Job-41.odb,Step-1,Increment      1: Step Time =    1.000,"P-41-1",          1250,       35.3565,       57.9351,            0.,NA,NA,"",   991.567E+03,   920.739E+03,   920.739E+03
C:/temp/Job-41.odb,Step-1,Increment      1: Step Time =    1.000,"P-41-1",          1251,       183.722,       33.7052,            0.,NA,NA,"",   1.08008E+06,   1.09700E+06,   1.09700E+06
C:/temp/Job-41.odb,Step-1,Increment      1: Step Time =    1.000,"P-41-1",          1252,       166.443,       183.225,            0.,NA,NA,"",   1.11701E+06,   1.10017E+06,   1.10017E+06
C:/temp/Job-41.odb,Step-1,Increment      1: Step Time =    1.000,"P-41-1",          1253,       32.7442,       15.8473,            0.,NA,NA,"",   1.73618E+06,   1.71801E+06,   1.71801E+06
C:/temp/Job-41.odb,Step-1,Increment      1: Step Time =    1.000,"P-41-1",          1254,       16.4869,       166.509,            0.,NA,NA,"",   1.32079E+06,   1.37752E+06,   1.37752E+06
C:/temp/Job-41.odb,Step-1,Increment      1: Step Time =    1.000,"P-41-1",          1255,       159.202,       47.4539,            0.,NA,NA,"",   1.61912E+06,   1.47163E+06,   1.47163E+06
C:/temp/Job-41.odb,Step-1,Increment      1: Step Time =    1.000,"P-41-1",          1256,       141.446,       42.4160,            0.,NA,NA,"",   1.78227E+06,   1.69735E+06,   1.69735E+06
C:/temp/Job-41.odb,Step-1,Increment      1: Step Time =    1.000,"P-41-1",          1257,       146.079,       38.6039,            0.,NA,NA,"",   1.66550E+06,   1.57202E+06,   1.57202E+06
C:/temp/Job-41.odb,Step-1,Increment      1: Step Time =    1.000,"P-41-1",          1258,       150.838,       35.6147,            0.,NA,NA,"",   1.55217E+06,   1.46305E+06,   1.46305E+06
C:/temp/Job-41.odb,Step-1,Increment      1: Step Time =    1.000,"P-41-1",          1259,       160.983,       155.751,            0.,NA,NA,"",   1.55118E+06,   1.42683E+06,   1.42683E+06
C:/temp/Job-41.odb,Step-1,Increment      1: Step Time =    1.000,"P-41-1",          1260,       43.4223,       122.805,            0.,NA,NA,"",   481.636E+03,   314.294E+03,   314.294E+03
C:/temp/Job-41.odb,Step-1,Increment      1: Step Time =    1.000,"P-41-1",          1261,       124.002,       35.4949,            0.,NA,NA,"",   1.66646E+06,   1.73627E+06,   1.73627E+06
C:/temp/Job-41.odb,Step-1,Increment      1: Step Time =    1.000,"P-41-1",          1262,       157.231,       15.7785,            0.,NA,NA,"",   1.13293E+06,   1.11103E+06,   1.11103E+06
C:/temp/Job-41.odb,Step-1,Increment      1: Step Time =    1.000,"P-41-1",          1263,       43.3774,       182.268,            0.,NA,NA,"",   1.70111E+06,   1.65886E+06,   1.65886E+06
C:/temp/Job-41.odb,Step-1,Increment      1: Step Time =    1.000,"P-41-1",          1264,       18.6429,       43.2672,            0.,NA,NA,"",   1.13736E+06,   1.17605E+06,   1.17605E+06
C:/temp/Job-41.odb,Step-1,Increment      1: Step Time =    1.000,"P-41-1",          1265,       183.696,       156.853,            0.,NA,NA,"",   1.10377E+06,   1.13377E+06,   1.13377E+06
C:/temp/Job-41.odb,Step-1,Increment      1: Step Time =    1.000,"P-41-1",          1266,       64.1360,       164.972,            0.,NA,NA,"",   1.83061E+06,   1.71988E+06,   1.71988E+06
C:/temp/Job-41.odb,Step-1,Increment      1: Step Time =    1.000,"P-41-1",          1267,       36.3036,       143.286,            0.,NA,NA,"",   1.04870E+06,   970.502E+03,   970.502E+03
C:/temp/Job-41.odb,Step-1,Increment      1: Step Time =    1.000,"P-41-1",          1268,       31.6686,       67.6183,            0.,NA,NA,"",   671.034E+03,   627.162E+03,   627.162E+03
C:/temp/Job-41.odb,Step-1,Increment      1: Step Time =    1.000,"P-41-1",          1269,       36.2173,       48.5878,            0.,NA,NA,"",   1.26328E+06,   1.18968E+06,   1.18968E+06
C:/temp/Job-41.odb,Step-1,Increment      1: Step Time =    1.000,"P-41-1",          1270,       77.6598,       37.4479,            0.,NA,NA,"",   1.92631E+06,   1.90266E+06,   1.90266E+06
C:/temp/Job-41.odb,Step-1,Increment      1: Step Time =    1.000,"P-41-1",          1271,       158.368,       40.4598,            0.,NA,NA,"",   1.53491E+06,   1.42958E+06,   1.42958E+06
C:/temp/Job-41.odb,Step-1,Increment      1: Step Time =    1.000,"P-41-1",          1272,       25.0881,       156.568,            0.,NA,NA,"",   1.21431E+06,   1.21428E+06,   1.21428E+06
C:/temp/Job-41.odb,Step-1,Increment      1: Step Time =    1.000,"P-41-1",          1273,       18.9672,       163.351,            0.,NA,NA,"",   1.29160E+06,   1.33145E+06,   1.33145E+06
C:/temp/Job-41.odb,Step-1,Increment      1: Step Time =    1.000,"P-41-1",          1274,       180.984,       37.0364,            0.,NA,NA,"",   1.13047E+06,   1.13825E+06,   1.13825E+06
C:/temp/Job-41.odb,Step-1,Increment      1: Step Time =    1.000,"P-41-1",          1275,       170.466,       44.5111,            0.,NA,NA,"",   1.37076E+06,   1.30616E+06,   1.30616E+06
C:/temp/Job-41.odb,Step-1,Increment      1: Step Time =    1.000,"P-41-1",          1276,       35.5356,       19.0926,            0.,NA,NA,"",   1.70422E+06,   1.67573E+06,   1.67573E+06
C:/temp/Job-41.odb,Step-1,Increment      1: Step Time =    1.000,"P-41-1",          1277,       43.2107,       25.4582,            0.,NA,NA,"",   1.67533E+06,   1.61038E+06,   1.61038E+06
C:/temp/Job-41.odb,Step-1,Increment      1: Step Time =    1.000,"P-41-1",          1278,       163.164,       180.531,            0.,NA,NA,"",   1.16731E+06,   1.14204E+06,   1.14204E+06
C:/temp/Job-41.odb,Step-1,Increment      1: Step Time =    1.000,"P-41-1",          1279,       154.360,       173.698,            0.,NA,NA,"",   1.33700E+06,   1.28499E+06,   1.28499E+06
C:/temp/Job-41.odb,Step-1,Increment      1: Step Time =    1.000,"P-41-1",          1280,       48.9000,       35.3717,            0.,NA,NA,"",   1.67082E+06,   1.55753E+06,   1.55753E+06
C:/temp/Job-41.odb,Step-1,Increment      1: Step Time =    1.000,"P-41-1",          1281,       44.8076,       107.154,            0.,NA,NA,"",   316.013E+03,  -340.100E+03,  -340.100E+03
C:/temp/Job-41.odb,Step-1,Increment      1: Step Time =    1.000,"P-41-1",          1282,       163.018,       161.267,            0.,NA,NA,"",   1.44387E+06,   1.35716E+06,   1.35716E+06
C:/temp/Job-41.odb,Step-1,Increment      1: Step Time =    1.000,"P-41-1",          1283,       153.517,       12.0815,            0.,NA,NA,"",   1.07337E+06,   1.05793E+06,   1.05793E+06
C:/temp/Job-41.odb,Step-1,Increment      1: Step Time =    1.000,"P-41-1",          1284,       47.1815,       186.682,            0.,NA,NA,"",   1.68766E+06,   1.65809E+06,   1.65809E+06
C:/temp/Job-41.odb,Step-1,Increment      1: Step Time =    1.000,"P-41-1",          1285,       13.3619,       46.5940,            0.,NA,NA,"",   997.703E+03,   1.06351E+06,   1.06351E+06
C:/temp/Job-41.odb,Step-1,Increment      1: Step Time =    1.000,"P-41-1",          1286,       187.703,       153.301,            0.,NA,NA,"",   1.03658E+06,   1.09955E+06,   1.09955E+06
C:/temp/Job-41.odb,Step-1,Increment      1: Step Time =    1.000,"P-41-1",          1287,       33.2590,       49.0851,            0.,NA,NA,"",   1.20998E+06,   1.15428E+06,   1.15428E+06
C:/temp/Job-41.odb,Step-1,Increment      1: Step Time =    1.000,"P-41-1",          1288,       163.302,       39.8674,            0.,NA,NA,"",   1.45930E+06,   1.36909E+06,   1.36909E+06
C:/temp/Job-41.odb,Step-1,Increment      1: Step Time =    1.000,"P-41-1",          1289,       156.238,       35.8110,            0.,NA,NA,"",   1.48794E+06,   1.40009E+06,   1.40009E+06
C:/temp/Job-41.odb,Step-1,Increment      1: Step Time =    1.000,"P-41-1",          1290,       125.529,       46.7869,            0.,NA,NA,"",   2.05084E+06,   2.12518E+06,   2.12518E+06
C:/temp/Job-41.odb,Step-1,Increment      1: Step Time =    1.000,"P-41-1",          1291,       35.4850,       10.6363,            0.,NA,NA,"",   1.76391E+06,   1.75240E+06,   1.75240E+06
C:/temp/Job-41.odb,Step-1,Increment      1: Step Time =    1.000,"P-41-1",          1292,       189.343,       35.8017,            0.,NA,NA,"",   1.01733E+06,   1.05364E+06,   1.05364E+06
C:/temp/Job-41.odb,Step-1,Increment      1: Step Time =    1.000,"P-41-1",          1293,       10.9273,       164.270,            0.,NA,NA,"",   1.20159E+06,   1.29183E+06,   1.29183E+06
C:/temp/Job-41.odb,Step-1,Increment      1: Step Time =    1.000,"P-41-1",          1294,       164.238,       188.937,            0.,NA,NA,"",   1.05682E+06,   1.04675E+06,   1.04675E+06
C:/temp/Job-41.odb,Step-1,Increment      1: Step Time =    1.000,"P-41-1",          1295,       135.252,       47.9352,            0.,NA,NA,"",   1.92889E+06,   1.88184E+06,   1.88184E+06
C:/temp/Job-41.odb,Step-1,Increment      1: Step Time =    1.000,"P-41-1",          1296,       173.684,       155.208,            0.,NA,NA,"",   1.30766E+06,   1.26630E+06,   1.26630E+06
C:/temp/Job-41.odb,Step-1,Increment      1: Step Time =    1.000,"P-41-1",          1297,       157.335,       23.5817,            0.,NA,NA,"",   1.26705E+06,   1.22465E+06,   1.22465E+06
C:/temp/Job-41.odb,Step-1,Increment      1: Step Time =    1.000,"P-41-1",          1298,       26.3914,       46.3157,            0.,NA,NA,"",   1.17703E+06,   1.16578E+06,   1.16578E+06
C:/temp/Job-41.odb,Step-1,Increment      1: Step Time =    1.000,"P-41-1",          1299,       42.0390,       177.591,            0.,NA,NA,"",   1.68298E+06,   1.62978E+06,   1.62978E+06
C:/temp/Job-41.odb,Step-1,Increment      1: Step Time =    1.000,"P-41-1",          1300,       37.6475,       148.197,            0.,NA,NA,"",   1.20510E+06,   1.11948E+06,   1.11948E+06
C:/temp/Job-41.odb,Step-1,Increment      1: Step Time =    1.000,"P-41-1",          1301,       172.392,       185.222,            0.,NA,NA,"",   1.06764E+06,   1.06069E+06,   1.06069E+06
C:/temp/Job-41.odb,Step-1,Increment      1: Step Time =    1.000,"P-41-1",          1302,       14.7688,       172.432,            0.,NA,NA,"",   1.44135E+06,   1.51202E+06,   1.51202E+06
C:/temp/Job-41.odb,Step-1,Increment      1: Step Time =    1.000,"P-41-1",          1303,       185.964,       27.9383,            0.,NA,NA,"",   1.04304E+06,   1.05700E+06,   1.05700E+06
C:/temp/Job-41.odb,Step-1,Increment      1: Step Time =    1.000,"P-41-1",          1304,       27.0595,       13.7630,            0.,NA,NA,"",   1.78056E+06,   1.77757E+06,   1.77757E+06
C:/temp/Job-41.odb,Step-1,Increment      1: Step Time =    1.000,"P-41-1",          1305,       59.7004,       165.042,            0.,NA,NA,"",   1.79506E+06,   1.67377E+06,   1.67377E+06
C:/temp/Job-41.odb,Step-1,Increment      1: Step Time =    1.000,"P-41-1",          1306,       128.424,       36.7411,            0.,NA,NA,"",   1.70800E+06,   1.74285E+06,   1.74285E+06
C:/temp/Job-41.odb,Step-1,Increment      1: Step Time =    1.000,"P-41-1",          1307,       33.1468,       45.0975,            0.,NA,NA,"",   1.29353E+06,   1.24285E+06,   1.24285E+06
C:/temp/Job-41.odb,Step-1,Increment      1: Step Time =    1.000,"P-41-1",          1308,       157.269,       28.6595,            0.,NA,NA,"",   1.36096E+06,   1.30201E+06,   1.30201E+06
C:/temp/Job-41.odb,Step-1,Increment      1: Step Time =    1.000,"P-41-1",          1309,       45.4010,       171.203,            0.,NA,NA,"",   1.67645E+06,   1.59329E+06,   1.59329E+06
C:/temp/Job-41.odb,Step-1,Increment      1: Step Time =    1.000,"P-41-1",          1310,       29.3844,       45.5368,            0.,NA,NA,"",   1.23077E+06,   1.20231E+06,   1.20231E+06
C:/temp/Job-41.odb,Step-1,Increment      1: Step Time =    1.000,"P-41-1",          1311,       168.924,       155.339,            0.,NA,NA,"",   1.40713E+06,   1.32930E+06,   1.32930E+06
C:/temp/Job-41.odb,Step-1,Increment      1: Step Time =    1.000,"P-41-1",          1312,       161.569,       25.6392,            0.,NA,NA,"",   1.26434E+06,   1.22217E+06,   1.22217E+06
C:/temp/Job-41.odb,Step-1,Increment      1: Step Time =    1.000,"P-41-1",          1313,       37.3879,       175.638,            0.,NA,NA,"",   1.65862E+06,   1.61440E+06,   1.61440E+06
C:/temp/Job-41.odb,Step-1,Increment      1: Step Time =    1.000,"P-41-1",          1314,       26.1426,       37.1794,            0.,NA,NA,"",   1.36074E+06,   1.35882E+06,   1.35882E+06
C:/temp/Job-41.odb,Step-1,Increment      1: Step Time =    1.000,"P-41-1",          1315,       173.269,       160.308,            0.,NA,NA,"",   1.26969E+06,   1.23635E+06,   1.23635E+06
C:/temp/Job-41.odb,Step-1,Increment      1: Step Time =    1.000,"P-41-1",          1316,       50.5252,       109.818,            0.,NA,NA,"",   560.692E+03,  -583.296E+03,  -583.296E+03
C:/temp/Job-41.odb,Step-1,Increment      1: Step Time =    1.000,"P-41-1",          1317,       22.6012,       164.958,            0.,NA,NA,"",   1.36801E+06,   1.38509E+06,   1.38509E+06
C:/temp/Job-41.odb,Step-1,Increment      1: Step Time =    1.000,"P-41-1",          1318,       177.093,       35.5652,            0.,NA,NA,"",   1.18220E+06,   1.17194E+06,   1.17194E+06
C:/temp/Job-41.odb,Step-1,Increment      1: Step Time =    1.000,"P-41-1",          1319,       32.6094,       23.3334,            0.,NA,NA,"",   1.65295E+06,   1.62689E+06,   1.62689E+06
C:/temp/Job-41.odb,Step-1,Increment      1: Step Time =    1.000,"P-41-1",          1320,       164.883,       176.583,            0.,NA,NA,"",   1.20830E+06,   1.17676E+06,   1.17676E+06
C:/temp/Job-41.odb,Step-1,Increment      1: Step Time =    1.000,"P-41-1",          1321,       158.055,       163.941,            0.,NA,NA,"",   1.48560E+06,   1.39518E+06,   1.39518E+06
C:/temp/Job-41.odb,Step-1,Increment      1: Step Time =    1.000,"P-41-1",          1322,       164.500,       158.085,            0.,NA,NA,"",   1.46070E+06,   1.36625E+06,   1.36625E+06
C:/temp/Job-41.odb,Step-1,Increment      1: Step Time =    1.000,"P-41-1",          1323,       160.253,       34.0219,            0.,NA,NA,"",   1.41342E+06,   1.33928E+06,   1.33928E+06
C:/temp/Job-41.odb,Step-1,Increment      1: Step Time =    1.000,"P-41-1",          1324,       162.195,       42.9239,            0.,NA,NA,"",   1.52490E+06,   1.41317E+06,   1.41317E+06
C:/temp/Job-41.odb,Step-1,Increment      1: Step Time =    1.000,"P-41-1",          1325,       130.398,       47.9288,            0.,NA,NA,"",   1.99348E+06,   2.00945E+06,   2.00945E+06
C:/temp/Job-41.odb,Step-1,Increment      1: Step Time =    1.000,"P-41-1",          1326,       135.141,       52.6192,            0.,NA,NA,"",   1.97445E+06,   1.91353E+06,   1.91353E+06
C:/temp/Job-41.odb,Step-1,Increment      1: Step Time =    1.000,"P-41-1",          1327,       174.669,       190.045,            0.,NA,NA,"",   1.02709E+06,   1.02466E+06,   1.02466E+06
C:/temp/Job-41.odb,Step-1,Increment      1: Step Time =    1.000,"P-41-1",          1328,       9.97155,       174.690,            0.,NA,NA,"",   1.42737E+06,   1.53096E+06,   1.53096E+06
C:/temp/Job-41.odb,Step-1,Increment      1: Step Time =    1.000,"P-41-1",          1329,       190.574,       25.5632,            0.,NA,NA,"",   1.00988E+06,   1.02507E+06,   1.02507E+06
C:/temp/Job-41.odb,Step-1,Increment      1: Step Time =    1.000,"P-41-1",          1330,       25.0976,       9.46363,            0.,NA,NA,"",   1.83999E+06,   1.84071E+06,   1.84071E+06
C:/temp/Job-41.odb,Step-1,Increment      1: Step Time =    1.000,"P-41-1",          1331,       54.9821,       165.538,            0.,NA,NA,"",   1.75003E+06,   1.62909E+06,   1.62909E+06
C:/temp/Job-41.odb,Step-1,Increment      1: Step Time =    1.000,"P-41-1",          1332,       41.2910,       151.980,            0.,NA,NA,"",   1.35835E+06,   1.25170E+06,   1.25170E+06
C:/temp/Job-41.odb,Step-1,Increment      1: Step Time =    1.000,"P-41-1",          1333,       134.604,       38.5585,            0.,NA,NA,"",   1.74791E+06,   1.73014E+06,   1.73014E+06
C:/temp/Job-41.odb,Step-1,Increment      1: Step Time =    1.000,"P-41-1",          1334,       40.1756,       183.005,            0.,NA,NA,"",   1.70860E+06,   1.67375E+06,   1.67375E+06
C:/temp/Job-41.odb,Step-1,Increment      1: Step Time =    1.000,"P-41-1",          1335,       184.097,       159.835,            0.,NA,NA,"",   1.09146E+06,   1.11858E+06,   1.11858E+06
C:/temp/Job-41.odb,Step-1,Increment      1: Step Time =    1.000,"P-41-1",          1336,       160.002,       15.2786,            0.,NA,NA,"",   1.11915E+06,   1.09993E+06,   1.09993E+06
C:/temp/Job-41.odb,Step-1,Increment      1: Step Time =    1.000,"P-41-1",          1337,       19.3714,       39.3591,            0.,NA,NA,"",   1.23846E+06,   1.27261E+06,   1.27261E+06
C:/temp/Job-41.odb,Step-1,Increment      1: Step Time =    1.000,"P-41-1",          1338,       34.0965,       152.347,            0.,NA,NA,"",   1.24751E+06,   1.18813E+06,   1.18813E+06
C:/temp/Job-41.odb,Step-1,Increment      1: Step Time =    1.000,"P-41-1",          1339,       154.347,       162.175,            0.,NA,NA,"",   1.56726E+06,   1.46347E+06,   1.46347E+06
C:/temp/Job-41.odb,Step-1,Increment      1: Step Time =    1.000,"P-41-1",          1340,       179.558,       26.2393,            0.,NA,NA,"",   1.09381E+06,   1.09402E+06,   1.09402E+06
C:/temp/Job-41.odb,Step-1,Increment      1: Step Time =    1.000,"P-41-1",          1341,       174.363,       178.331,            0.,NA,NA,"",   1.10651E+06,   1.09779E+06,   1.09779E+06
C:/temp/Job-41.odb,Step-1,Increment      1: Step Time =    1.000,"P-41-1",          1342,       25.5858,       20.3731,            0.,NA,NA,"",   1.66871E+06,   1.67158E+06,   1.67158E+06
C:/temp/Job-41.odb,Step-1,Increment      1: Step Time =    1.000,"P-41-1",          1343,       22.0043,       174.249,            0.,NA,NA,"",   1.55455E+06,   1.57773E+06,   1.57773E+06
C:/temp/Job-41.odb,Step-1,Increment      1: Step Time =    1.000,"P-41-1",          1344,       163.961,       32.8271,            0.,NA,NA,"",   1.35214E+06,   1.29135E+06,   1.29135E+06
C:/temp/Job-41.odb,Step-1,Increment      1: Step Time =    1.000,"P-41-1",          1345,       163.339,       29.5388,            0.,NA,NA,"",   1.31208E+06,   1.26047E+06,   1.26047E+06
C:/temp/Job-41.odb,Step-1,Increment      1: Step Time =    1.000,"P-41-1",          1346,       166.531,       20.8929,            0.,NA,NA,"",   1.16180E+06,   1.13881E+06,   1.13881E+06
C:/temp/Job-41.odb,Step-1,Increment      1: Step Time =    1.000,"P-41-1",          1347,       32.1941,       178.201,            0.,NA,NA,"",   1.66816E+06,   1.64622E+06,   1.64622E+06
C:/temp/Job-41.odb,Step-1,Increment      1: Step Time =    1.000,"P-41-1",          1348,       20.7380,       35.8047,            0.,NA,NA,"",   1.32633E+06,   1.35651E+06,   1.35651E+06
C:/temp/Job-41.odb,Step-1,Increment      1: Step Time =    1.000,"P-41-1",          1349,       176.431,       166.987,            0.,NA,NA,"",   1.17535E+06,   1.16295E+06,   1.16295E+06
C:/temp/Job-41.odb,Step-1,Increment      1: Step Time =    1.000,"P-41-1",          1350,       35.6097,       159.464,            0.,NA,NA,"",   1.41958E+06,   1.35669E+06,   1.35669E+06
C:/temp/Job-41.odb,Step-1,Increment      1: Step Time =    1.000,"P-41-1",          1351,       28.8767,       161.856,            0.,NA,NA,"",   1.37983E+06,   1.36003E+06,   1.36003E+06
C:/temp/Job-41.odb,Step-1,Increment      1: Step Time =    1.000,"P-41-1",          1352,       170.265,       38.4746,            0.,NA,NA,"",   1.32019E+06,   1.27002E+06,   1.27002E+06
C:/temp/Job-41.odb,Step-1,Increment      1: Step Time =    1.000,"P-41-1",          1353,       37.6010,       30.2950,            0.,NA,NA,"",   1.60326E+06,   1.54431E+06,   1.54431E+06
C:/temp/Job-41.odb,Step-1,Increment      1: Step Time =    1.000,"P-41-1",          1354,       161.271,       170.110,            0.,NA,NA,"",   1.33957E+06,   1.28203E+06,   1.28203E+06
C:/temp/Job-41.odb,Step-1,Increment      1: Step Time =    1.000,"P-41-1",          1355,       163.433,       152.521,            0.,NA,NA,"",   1.53138E+06,   1.40663E+06,   1.40663E+06
C:/temp/Job-41.odb,Step-1,Increment      1: Step Time =    1.000,"P-41-1",          1356,       166.004,       162.446,            0.,NA,NA,"",   1.38040E+06,   1.31196E+06,   1.31196E+06
C:/temp/Job-41.odb,Step-1,Increment      1: Step Time =    1.000,"P-41-1",          1357,       176.258,       183.228,            0.,NA,NA,"",   1.06596E+06,   1.06208E+06,   1.06208E+06
C:/temp/Job-41.odb,Step-1,Increment      1: Step Time =    1.000,"P-41-1",          1358,       16.8823,       176.254,            0.,NA,NA,"",   1.55716E+06,   1.60957E+06,   1.60957E+06
C:/temp/Job-41.odb,Step-1,Increment      1: Step Time =    1.000,"P-41-1",          1359,       184.210,       24.4083,            0.,NA,NA,"",   1.05133E+06,   1.05871E+06,   1.05871E+06
C:/temp/Job-41.odb,Step-1,Increment      1: Step Time =    1.000,"P-41-1",          1360,       22.8907,       16.1442,            0.,NA,NA,"",   1.74285E+06,   1.75461E+06,   1.75461E+06
C:/temp/Job-41.odb,Step-1,Increment      1: Step Time =    1.000,"P-41-1",          1361,       44.5216,       149.089,            0.,NA,NA,"",   1.35327E+06,   1.22221E+06,   1.22221E+06
C:/temp/Job-41.odb,Step-1,Increment      1: Step Time =    1.000,"P-41-1",          1362,       135.688,       32.6049,            0.,NA,NA,"",   1.58149E+06,   1.56322E+06,   1.56322E+06
C:/temp/Job-41.odb,Step-1,Increment      1: Step Time =    1.000,"P-41-1",          1363,       148.635,       162.582,            0.,NA,NA,"",   1.61480E+06,   1.52013E+06,   1.52013E+06
C:/temp/Job-41.odb,Step-1,Increment      1: Step Time =    1.000,"P-41-1",          1364,       175.058,       26.5162,            0.,NA,NA,"",   1.13770E+06,   1.12743E+06,   1.12743E+06
C:/temp/Job-41.odb,Step-1,Increment      1: Step Time =    1.000,"P-41-1",          1365,       170.165,       174.815,            0.,NA,NA,"",   1.18124E+06,   1.15764E+06,   1.15764E+06
C:/temp/Job-41.odb,Step-1,Increment      1: Step Time =    1.000,"P-41-1",          1366,       25.1180,       169.650,            0.,NA,NA,"",   1.48594E+06,   1.49070E+06,   1.49070E+06
C:/temp/Job-41.odb,Step-1,Increment      1: Step Time =    1.000,"P-41-1",          1367,       50.7693,       161.332,            0.,NA,NA,"",   1.66965E+06,   1.54305E+06,   1.54305E+06
C:/temp/Job-41.odb,Step-1,Increment      1: Step Time =    1.000,"P-41-1",          1368,       44.5275,       164.207,            0.,NA,NA,"",   1.61431E+06,   1.51341E+06,   1.51341E+06
C:/temp/Job-41.odb,Step-1,Increment      1: Step Time =    1.000,"P-41-1",          1369,       38.8454,       186.166,            0.,NA,NA,"",   1.73093E+06,   1.70698E+06,   1.70698E+06
C:/temp/Job-41.odb,Step-1,Increment      1: Step Time =    1.000,"P-41-1",          1370,       161.291,       12.6210,            0.,NA,NA,"",   1.07829E+06,   1.06491E+06,   1.06491E+06
C:/temp/Job-41.odb,Step-1,Increment      1: Step Time =    1.000,"P-41-1",          1371,       14.8395,       38.0036,            0.,NA,NA,"",   1.21018E+06,   1.27446E+06,   1.27446E+06
C:/temp/Job-41.odb,Step-1,Increment      1: Step Time =    1.000,"P-41-1",          1372,       186.879,       161.296,            0.,NA,NA,"",   1.04692E+06,   1.08319E+06,   1.08319E+06
C:/temp/Job-41.odb,Step-1,Increment      1: Step Time =    1.000,"P-41-1",          1373,       37.8740,       35.6791,            0.,NA,NA,"",   1.53361E+06,   1.46440E+06,   1.46440E+06
C:/temp/Job-41.odb,Step-1,Increment      1: Step Time =    1.000,"P-41-1",          1374,       162.107,       165.461,            0.,NA,NA,"",   1.40230E+06,   1.32893E+06,   1.32893E+06
C:/temp/Job-41.odb,Step-1,Increment      1: Step Time =    1.000,"P-41-1",          1375,       170.045,       165.081,            0.,NA,NA,"",   1.27740E+06,   1.23714E+06,   1.23714E+06
C:/temp/Job-41.odb,Step-1,Increment      1: Step Time =    1.000,"P-41-1",          1376,       165.351,       146.645,            0.,NA,NA,"",   1.53341E+06,   1.39224E+06,   1.39224E+06
C:/temp/Job-41.odb,Step-1,Increment      1: Step Time =    1.000,"P-41-1",          1377,       33.0053,       174.231,            0.,NA,NA,"",   1.62623E+06,   1.59482E+06,   1.59482E+06
C:/temp/Job-41.odb,Step-1,Increment      1: Step Time =    1.000,"P-41-1",          1378,       25.8250,       32.3221,            0.,NA,NA,"",   1.46176E+06,   1.46280E+06,   1.46280E+06
C:/temp/Job-41.odb,Step-1,Increment      1: Step Time =    1.000,"P-41-1",          1379,       173.065,       164.123,            0.,NA,NA,"",   1.24361E+06,   1.21431E+06,   1.21431E+06
C:/temp/Job-41.odb,Step-1,Increment      1: Step Time =    1.000,"P-41-1",          1380,       174.263,       30.1168,            0.,NA,NA,"",   1.17881E+06,   1.16223E+06,   1.16223E+06
C:/temp/Job-41.odb,Step-1,Increment      1: Step Time =    1.000,"P-41-1",          1381,       55.2797,       161.155,            0.,NA,NA,"",   1.73042E+06,   1.59638E+06,   1.59638E+06
C:/temp/Job-41.odb,Step-1,Increment      1: Step Time =    1.000,"P-41-1",          1382,       40.0943,       161.970,            0.,NA,NA,"",   1.52602E+06,   1.43992E+06,   1.43992E+06
C:/temp/Job-41.odb,Step-1,Increment      1: Step Time =    1.000,"P-41-1",          1383,       35.4773,       184.373,            0.,NA,NA,"",   1.72829E+06,   1.70781E+06,   1.70781E+06
C:/temp/Job-41.odb,Step-1,Increment      1: Step Time =    1.000,"P-41-1",          1384,       164.258,       14.4423,            0.,NA,NA,"",   1.09150E+06,   1.07745E+06,   1.07745E+06
C:/temp/Job-41.odb,Step-1,Increment      1: Step Time =    1.000,"P-41-1",          1385,       16.2320,       34.3334,            0.,NA,NA,"",   1.30837E+06,   1.36634E+06,   1.36634E+06
C:/temp/Job-41.odb,Step-1,Increment      1: Step Time =    1.000,"P-41-1",          1386,       184.772,       164.449,            0.,NA,NA,"",   1.06546E+06,   1.08946E+06,   1.08946E+06
C:/temp/Job-41.odb,Step-1,Increment      1: Step Time =    1.000,"P-41-1",          1387,       46.5257,       151.556,            0.,NA,NA,"",   1.43994E+06,   1.30382E+06,   1.30382E+06
C:/temp/Job-41.odb,Step-1,Increment      1: Step Time =    1.000,"P-41-1",          1388,       46.6673,       159.515,            0.,NA,NA,"",   1.59003E+06,   1.47014E+06,   1.47014E+06
C:/temp/Job-41.odb,Step-1,Increment      1: Step Time =    1.000,"P-41-1",          1389,       166.999,       24.6353,            0.,NA,NA,"",   1.20227E+06,   1.17327E+06,   1.17327E+06
C:/temp/Job-41.odb,Step-1,Increment      1: Step Time =    1.000,"P-41-1",          1390,       130.883,       43.1420,            0.,NA,NA,"",   1.88079E+06,   1.89357E+06,   1.89357E+06
C:/temp/Job-41.odb,Step-1,Increment      1: Step Time =    1.000,"P-41-1",          1391,       178.954,       22.3820,            0.,NA,NA,"",   1.07778E+06,   1.07670E+06,   1.07670E+06
C:/temp/Job-41.odb,Step-1,Increment      1: Step Time =    1.000,"P-41-1",          1392,       28.1701,       23.5968,            0.,NA,NA,"",   1.62638E+06,   1.61817E+06,   1.61817E+06
C:/temp/Job-41.odb,Step-1,Increment      1: Step Time =    1.000,"P-41-1",          1393,       178.204,       177.230,            0.,NA,NA,"",   1.08651E+06,   1.08396E+06,   1.08396E+06
C:/temp/Job-41.odb,Step-1,Increment      1: Step Time =    1.000,"P-41-1",          1394,       22.9992,       178.214,            0.,NA,NA,"",   1.64336E+06,   1.65708E+06,   1.65708E+06
C:/temp/Job-41.odb,Step-1,Increment      1: Step Time =    1.000,"P-41-1",          1395,       33.2514,       163.776,            0.,NA,NA,"",   1.46722E+06,   1.42253E+06,   1.42253E+06
C:/temp/Job-41.odb,Step-1,Increment      1: Step Time =    1.000,"P-41-1",          1396,       37.2167,       45.4386,            0.,NA,NA,"",   1.34412E+06,   1.26746E+06,   1.26746E+06
C:/temp/Job-41.odb,Step-1,Increment      1: Step Time =    1.000,"P-41-1",          1397,       24.5732,       29.0933,            0.,NA,NA,"",   1.52032E+06,   1.52667E+06,   1.52667E+06
C:/temp/Job-41.odb,Step-1,Increment      1: Step Time =    1.000,"P-41-1",          1398,       27.6571,       173.054,            0.,NA,NA,"",   1.56991E+06,   1.56280E+06,   1.56280E+06
C:/temp/Job-41.odb,Step-1,Increment      1: Step Time =    1.000,"P-41-1",          1399,       173.673,       173.710,            0.,NA,NA,"",   1.15654E+06,   1.14049E+06,   1.14049E+06
C:/temp/Job-41.odb,Step-1,Increment      1: Step Time =    1.000,"P-41-1",          1400,       170.911,       23.3197,            0.,NA,NA,"",   1.15061E+06,   1.13352E+06,   1.13352E+06
C:/temp/Job-41.odb,Step-1,Increment      1: Step Time =    1.000,"P-41-1",          1401,       21.5810,       23.8159,            0.,NA,NA,"",   1.59186E+06,   1.61490E+06,   1.61490E+06
C:/temp/Job-41.odb,Step-1,Increment      1: Step Time =    1.000,"P-41-1",          1402,       174.969,       22.7443,            0.,NA,NA,"",   1.10863E+06,   1.10099E+06,   1.10099E+06
C:/temp/Job-41.odb,Step-1,Increment      1: Step Time =    1.000,"P-41-1",          1403,       37.5486,       165.973,            0.,NA,NA,"",   1.55444E+06,   1.48805E+06,   1.48805E+06
C:/temp/Job-41.odb,Step-1,Increment      1: Step Time =    1.000,"P-41-1",          1404,       35.0295,       170.071,            0.,NA,NA,"",   1.58593E+06,   1.53982E+06,   1.53982E+06
C:/temp/Job-41.odb,Step-1,Increment      1: Step Time =    1.000,"P-41-1",          1405,       42.3581,       158.109,            0.,NA,NA,"",   1.49889E+06,   1.39576E+06,   1.39576E+06
C:/temp/Job-41.odb,Step-1,Increment      1: Step Time =    1.000,"P-41-1",          1406,       43.4737,       35.7914,            0.,NA,NA,"",   1.60437E+06,   1.50848E+06,   1.50848E+06
C:/temp/Job-41.odb,Step-1,Increment      1: Step Time =    1.000,"P-41-1",          1407,       49.8908,       150.623,            0.,NA,NA,"",   1.47688E+06,   1.32686E+06,   1.32686E+06
C:/temp/Job-41.odb,Step-1,Increment      1: Step Time =    1.000,"P-41-1",          1408,       37.9897,       40.9322,            0.,NA,NA,"",   1.44362E+06,   1.36780E+06,   1.36780E+06
C:/temp/Job-41.odb,Step-1,Increment      1: Step Time =    1.000,"P-41-1",          1409,       60.0519,       156.317,            0.,NA,NA,"",   1.75345E+06,   1.61081E+06,   1.61081E+06
C:/temp/Job-41.odb,Step-1,Increment      1: Step Time =    1.000,"P-41-1",          1410,       181.299,       176.231,            0.,NA,NA,"",   1.06656E+06,   1.07024E+06,   1.07024E+06
C:/temp/Job-41.odb,Step-1,Increment      1: Step Time =    1.000,"P-41-1",          1411,       23.8843,       181.384,            0.,NA,NA,"",   1.71048E+06,   1.71763E+06,   1.71763E+06
C:/temp/Job-41.odb,Step-1,Increment      1: Step Time =    1.000,"P-41-1",          1412,       21.0346,       28.4925,            0.,NA,NA,"",   1.49602E+06,   1.52284E+06,   1.52284E+06
C:/temp/Job-41.odb,Step-1,Increment      1: Step Time =    1.000,"P-41-1",          1413,       174.693,       18.8883,            0.,NA,NA,"",   1.08657E+06,   1.07980E+06,   1.07980E+06
C:/temp/Job-41.odb,Step-1,Increment      1: Step Time =    1.000,"P-41-1",          1414,       54.1524,       149.321,            0.,NA,NA,"",   1.52315E+06,   1.36077E+06,   1.36077E+06
C:/temp/Job-41.odb,Step-1,Increment      1: Step Time =    1.000,"P-41-1",          1415,       15.5393,       21.3196,            0.,NA,NA,"",   1.60619E+06,   1.66317E+06,   1.66317E+06
C:/temp/Job-41.odb,Step-1,Increment      1: Step Time =    1.000,"P-41-1",          1416,       20.3520,       186.053,            0.,NA,NA,"",   1.79863E+06,   1.81329E+06,   1.81329E+06
C:/temp/Job-41.odb,Step-1,Increment      1: Step Time =    1.000,"P-41-1",          1417,       179.213,       14.3809,            0.,NA,NA,"",   1.03929E+06,   1.03861E+06,   1.03861E+06
C:/temp/Job-41.odb,Step-1,Increment      1: Step Time =    1.000,"P-41-1",          1418,       186.017,       179.676,            0.,NA,NA,"",   1.02725E+06,   1.03473E+06,   1.03473E+06
C:/temp/Job-41.odb,Step-1,Increment      1: Step Time =    1.000,"P-41-1",          1419,       32.1194,       35.8543,            0.,NA,NA,"",   1.45872E+06,   1.42031E+06,   1.42031E+06
C:/temp/Job-41.odb,Step-1,Increment      1: Step Time =    1.000,"P-41-1",          1420,       185.128,       175.010,            0.,NA,NA,"",   1.04145E+06,   1.05198E+06,   1.05198E+06
C:/temp/Job-41.odb,Step-1,Increment      1: Step Time =    1.000,"P-41-1",          1421,       25.0229,       185.244,            0.,NA,NA,"",   1.76767E+06,   1.77113E+06,   1.77113E+06
C:/temp/Job-41.odb,Step-1,Increment      1: Step Time =    1.000,"P-41-1",          1422,       174.365,       14.6919,            0.,NA,NA,"",   1.05979E+06,   1.05469E+06,   1.05469E+06
C:/temp/Job-41.odb,Step-1,Increment      1: Step Time =    1.000,"P-41-1",          1423,       16.0316,       24.9046,            0.,NA,NA,"",   1.52387E+06,   1.58217E+06,   1.58217E+06
C:/temp/Job-41.odb,Step-1,Increment      1: Step Time =    1.000,"P-41-1",          1424,       16.4565,       182.077,            0.,NA,NA,"",   1.68441E+06,   1.73102E+06,   1.73102E+06
C:/temp/Job-41.odb,Step-1,Increment      1: Step Time =    1.000,"P-41-1",          1425,       183.613,       18.7812,            0.,NA,NA,"",   1.03800E+06,   1.04172E+06,   1.04172E+06
C:/temp/Job-41.odb,Step-1,Increment      1: Step Time =    1.000,"P-41-1",          1426,       182.067,       183.589,            0.,NA,NA,"",   1.03468E+06,   1.03739E+06,   1.03739E+06
C:/temp/Job-41.odb,Step-1,Increment      1: Step Time =    1.000,"P-41-1",          1427,       16.0782,       15.8464,            0.,NA,NA,"",   1.74663E+06,   1.78985E+06,   1.78985E+06
C:/temp/Job-41.odb,Step-1,Increment      1: Step Time =    1.000,"P-41-1",          1428,       190.334,       184.626,            0.,NA,NA,"",   1.00861E+06,   1.01200E+06,   1.01200E+06
C:/temp/Job-41.odb,Step-1,Increment      1: Step Time =    1.000,"P-41-1",          1429,       15.3783,       190.337,            0.,NA,NA,"",   1.90804E+06,   1.93006E+06,   1.93006E+06
C:/temp/Job-41.odb,Step-1,Increment      1: Step Time =    1.000,"P-41-1",          1430,       184.538,       9.92052,            0.,NA,NA,"",   1.00889E+06,   1.01047E+06,   1.01047E+06
C:/temp/Job-41.odb,Step-1,Increment      1: Step Time =    1.000,"P-41-1",          1431,       9.93314,       14.4185,            0.,NA,NA,"",   1.74571E+06,   1.83606E+06,   1.83606E+06
C:/temp/Job-41.odb,Step-1,Increment      1: Step Time =    1.000,"P-41-1",          1432,       59.0425,       38.0017,            0.,NA,NA,"",   1.78793E+06,   1.65542E+06,   1.65542E+06
C:/temp/Job-41.odb,Step-1,Increment      1: Step Time =    1.000,"P-41-1",          1433,       142.939,       33.4803,            0.,NA,NA,"",   1.57924E+06,   1.51960E+06,   1.51960E+06
C:/temp/Job-41.odb,Step-1,Increment      1: Step Time =    1.000,"P-41-1",          1434,       89.6714,       32.2947,            0.,NA,NA,"",   1.75084E+06,   1.81723E+06,   1.81723E+06
C:/temp/Job-41.odb,Step-1,Increment      1: Step Time =    1.000,"P-41-1",          1435,       163.078,       8.89846,            0.,NA,NA,"",   1.03095E+06,   1.02391E+06,   1.02391E+06
C:/temp/Job-41.odb,Step-1,Increment      1: Step Time =    1.000,"P-41-1",          1436,       10.1673,       36.3773,            0.,NA,NA,"",   1.18078E+06,   1.27433E+06,   1.27433E+06
C:/temp/Job-41.odb,Step-1,Increment      1: Step Time =    1.000,"P-41-1",          1437,       190.723,       163.174,            0.,NA,NA,"",   999.864E+03,   1.04298E+06,   1.04298E+06
C:/temp/Job-41.odb,Step-1,Increment      1: Step Time =    1.000,"P-41-1",          1438,       36.9891,       190.351,            0.,NA,NA,"",   1.76490E+06,   1.75280E+06,   1.75280E+06
C:/temp/Job-41.odb,Step-1,Increment      1: Step Time =    1.000,"P-41-1",          1439,       164.822,       64.9712,            0.,NA,NA,"",   1.51265E+06,   1.31659E+06,   1.31659E+06
C:/temp/Job-41.odb,Step-1,Increment      1: Step Time =    1.000,"P-41-1",          1440,       11.0664,       25.2016,            0.,NA,NA,"",   1.44656E+06,   1.54270E+06,   1.54270E+06
C:/temp/Job-41.odb,Step-1,Increment      1: Step Time =    1.000,"P-41-1",          1441,       174.075,       10.1384,            0.,NA,NA,"",   1.02991E+06,   1.02699E+06,   1.02699E+06
C:/temp/Job-41.odb,Step-1,Increment      1: Step Time =    1.000,"P-41-1",          1442,       25.7221,       189.731,            0.,NA,NA,"",   1.82823E+06,   1.82789E+06,   1.82789E+06
C:/temp/Job-41.odb,Step-1,Increment      1: Step Time =    1.000,"P-41-1",          1443,       189.709,       174.301,            0.,NA,NA,"",   1.01567E+06,   1.03031E+06,   1.03031E+06
C:/temp/Job-41.odb,Step-1,Increment      1: Step Time =    1.000,"P-41-1",          1444,       124.575,       52.0378,            0.,NA,NA,"",   2.26693E+06,   2.35413E+06,   2.35413E+06
C:/temp/Job-41.odb,Step-1,Increment      1: Step Time =    1.000,"P-41-1",          1445,       171.411,       150.096,            0.,NA,NA,"",   1.39065E+06,   1.31720E+06,   1.31720E+06
C:/temp/Job-41.odb,Step-1,Increment      1: Step Time =    1.000,"P-41-1",          1446,       51.7688,       170.930,            0.,NA,NA,"",   1.72320E+06,   1.62594E+06,   1.62594E+06
C:/temp/Job-41.odb,Step-1,Increment      1: Step Time =    1.000,"P-41-1",          1447,       59.6768,       152.022,            0.,NA,NA,"",    1.6779E+06,   1.52511E+06,   1.52511E+06
C:/temp/Job-41.odb,Step-1,Increment      1: Step Time =    1.000,"P-41-1",          1448,       10.7576,       185.162,            0.,NA,NA,"",   1.73846E+06,   1.82271E+06,   1.82271E+06
C:/temp/Job-41.odb,Step-1,Increment      1: Step Time =    1.000,"P-41-1",          1449,       14.5618,       9.79233,            0.,NA,NA,"",   1.91497E+06,   1.94125E+06,   1.94125E+06
C:/temp/Job-41.odb,Step-1,Increment      1: Step Time =    1.000,"P-41-1",          1450,       185.160,       189.258,            0.,NA,NA,"",   1.00979E+06,   1.01167E+06,   1.01167E+06
C:/temp/Job-41.odb,Step-1,Increment      1: Step Time =    1.000,"P-41-1",          1451,       189.343,       15.1136,            0.,NA,NA,"",   1.00929E+06,   1.01313E+06,   1.01313E+06
C:/temp/Job-41.odb,Step-1,Increment      1: Step Time =    1.000,"P-41-1",          1452,       54.9391,       153.116,            0.,NA,NA,"",   1.62281E+06,   1.46715E+06,   1.46715E+06
C:/temp/Job-41.odb,Step-1,Increment      1: Step Time =    1.000,"P-41-1",          1453,       111.020,       146.921,            0.,NA,NA,"",   3.32948E+06,   3.43666E+06,   3.43666E+06
C:/temp/Job-41.odb,Step-1,Increment      1: Step Time =    1.000,"P-41-1",          1454,       190.424,       55.2355,            0.,NA,NA,"",   985.607E+03,   1.09395E+06,   1.09395E+06
C:/temp/Job-41.odb,Step-1,Increment      1: Step Time =    1.000,"P-41-1",          1455,       55.2479,       9.73340,            0.,NA,NA,"",   1.60570E+06,   1.58369E+06,   1.58369E+06
C:/temp/Job-41.odb,Step-1,Increment      1: Step Time =    1.000,"P-41-1",          1456,       144.785,       190.531,            0.,NA,NA,"",   1.00119E+06,   991.345E+03,   991.345E+03
C:/temp/Job-41.odb,Step-1,Increment      1: Step Time =    1.000,"P-41-1",          1457,       9.69425,       144.736,            0.,NA,NA,"",   777.230E+03,   846.237E+03,   846.237E+03
C:/temp/Job-41.odb,Step-1,Increment      1: Step Time =    1.000,"P-41-1",          1458,       184.257,       14.5628,            0.,NA,NA,"",   1.02212E+06,   1.02503E+06,   1.02503E+06
C:/temp/Job-41.odb,Step-1,Increment      1: Step Time =    1.000,"P-41-1",          1459,       185.923,       184.373,            0.,NA,NA,"",   1.01993E+06,   1.02381E+06,   1.02381E+06
C:/temp/Job-41.odb,Step-1,Increment      1: Step Time =    1.000,"P-41-1",          1460,       13.6117,       13.4172,            0.,NA,NA,"",   1.82035E+06,    1.8698E+06,    1.8698E+06
C:/temp/Job-41.odb,Step-1,Increment      1: Step Time =    1.000,"P-41-1",          1461,       15.6512,       185.936,            0.,NA,NA,"",   1.80057E+06,   1.83881E+06,   1.83881E+06
C:/temp/Job-41.odb,Step-1,Increment      1: Step Time =    1.000,"P-41-1",          1462,       160.696,       67.1376,            0.,NA,NA,"",   1.54796E+06,   1.28846E+06,   1.28846E+06
C:/temp/Job-41.odb,Step-1,Increment      1: Step Time =    1.000,"P-41-1",          1463,       8.60381,       50.6102,            0.,NA,NA,"",   867.941E+03,   947.606E+03,   947.606E+03
C:/temp/Job-41.odb,Step-1,Increment      1: Step Time =    1.000,"P-41-1",          1464,       149.315,       8.15270,            0.,NA,NA,"",   991.750E+03,   983.333E+03,   983.333E+03
C:/temp/Job-41.odb,Step-1,Increment      1: Step Time =    1.000,"P-41-1",          1465,       191.784,       149.195,            0.,NA,NA,"",   964.383E+03,   1.06401E+06,   1.06401E+06
C:/temp/Job-41.odb,Step-1,Increment      1: Step Time =    1.000,"P-41-1",          1466,       51.0479,       191.301,            0.,NA,NA,"",   1.64884E+06,   1.63231E+06,   1.63231E+06
C:/temp/Job-41.odb,Step-1,Increment      1: Step Time =    1.000,"P-41-1",          1467,       142.104,       61.7030,            0.,NA,NA,"",   1.77809E+06,   1.58702E+06,   1.58702E+06
C:/temp/Job-41.odb,Step-1,Increment      1: Step Time =    1.000,"P-41-1",          1468,       146.330,       126.020,            0.,NA,NA,"",   1.25686E+06,   596.282E+03,   596.282E+03
C:/temp/Job-41.odb,Step-1,Increment      1: Step Time =    1.000,"P-41-1",          1469,       64.5622,       151.025,            0.,NA,NA,"",   1.73379E+06,   1.60717E+06,   1.60717E+06
C:/temp/Job-41.odb,Step-1,Increment      1: Step Time =    1.000,"P-41-1",          1470,       49.4674,       117.845,            0.,NA,NA,"",   435.491E+03,  -385.893E+03,  -385.893E+03
C:/temp/Job-41.odb,Step-1,Increment      1: Step Time =    1.000,"P-41-1",          1471,       117.116,       149.226,            0.,NA,NA,"",   2.60765E+06,   2.74507E+06,   2.74507E+06
C:/temp/Job-41.odb,Step-1,Increment      1: Step Time =    1.000,"P-41-1",          1472,       29.2784,       183.679,            0.,NA,NA,"",   1.73712E+06,   1.72903E+06,   1.72903E+06
C:/temp/Job-41.odb,Step-1,Increment      1: Step Time =    1.000,"P-41-1",          1473,       169.795,       15.6248,            0.,NA,NA,"",   1.08653E+06,   1.07603E+06,   1.07603E+06
C:/temp/Job-41.odb,Step-1,Increment      1: Step Time =    1.000,"P-41-1",          1474,       183.387,       170.659,            0.,NA,NA,"",   1.06968E+06,   1.08064E+06,   1.08064E+06
C:/temp/Job-41.odb,Step-1,Increment      1: Step Time =    1.000,"P-41-1",          1475,       149.408,       81.7818,            0.,NA,NA,"",   1.02368E+06,  -373.489E+03,  -373.489E+03
C:/temp/Job-41.odb,Step-1,Increment      1: Step Time =    1.000,"P-41-1",          1476,       155.044,       96.2450,            0.,NA,NA,"",   659.315E+03,  -616.649E+03,  -616.649E+03
C:/temp/Job-41.odb,Step-1,Increment      1: Step Time =    1.000,"P-41-1",          1477,       158.203,       100.195,            0.,NA,NA,"",   478.499E+03,  -404.721E+03,  -404.721E+03
C:/temp/Job-41.odb,Step-1,Increment      1: Step Time =    1.000,"P-41-1",          1478,       47.5628,       84.5020,            0.,NA,NA,"",   385.734E+03,  -357.388E+03,  -357.388E+03
C:/temp/Job-41.odb,Step-1,Increment      1: Step Time =    1.000,"P-41-1",          1479,       69.4621,       50.5059,            0.,NA,NA,"",   1.79924E+06,   1.71419E+06,   1.71419E+06
C:/temp/Job-41.odb,Step-1,Increment      1: Step Time =    1.000,"P-41-1",          1480,       82.8467,       49.2038,            0.,NA,NA,"",   2.18942E+06,   2.25268E+06,   2.25268E+06
C:/temp/Job-41.odb,Step-1,Increment      1: Step Time =    1.000,"P-41-1",          1481,       187.590,       157.459,            0.,NA,NA,"",   1.03721E+06,   1.08706E+06,   1.08706E+06
C:/temp/Job-41.odb,Step-1,Increment      1: Step Time =    1.000,"P-41-1",          1482,       187.325,       144.347,            0.,NA,NA,"",   1.04630E+06,   1.13529E+06,   1.13529E+06
C:/temp/Job-41.odb,Step-1,Increment      1: Step Time =    1.000,"P-41-1",          1483,       42.8324,       186.669,            0.,NA,NA,"",   1.71401E+06,   1.68717E+06,   1.68717E+06
C:/temp/Job-41.odb,Step-1,Increment      1: Step Time =    1.000,"P-41-1",          1484,       157.611,       12.0459,            0.,NA,NA,"",   1.07298E+06,   1.05891E+06,   1.05891E+06
C:/temp/Job-41.odb,Step-1,Increment      1: Step Time =    1.000,"P-41-1",          1485,       144.622,       12.6526,            0.,NA,NA,"",   1.07396E+06,   1.05876E+06,   1.05876E+06
C:/temp/Job-41.odb,Step-1,Increment      1: Step Time =    1.000,"P-41-1",          1486,       16.6315,       28.9175,            0.,NA,NA,"",   1.43145E+06,   1.48785E+06,   1.48785E+06
C:/temp/Job-41.odb,Step-1,Increment      1: Step Time =    1.000,"P-41-1",          1487,       13.9773,       42.2180,            0.,NA,NA,"",   1.10155E+06,   1.16842E+06,   1.16842E+06
C:/temp/Job-41.odb,Step-1,Increment      1: Step Time =    1.000,"P-41-1",          1488,       12.7818,       55.4840,            0.,NA,NA,"",   797.123E+03,   855.763E+03,   855.763E+03
C:/temp/Job-41.odb,Step-1,Increment      1: Step Time =    1.000,"P-41-1",          1489,       82.6461,       155.935,            0.,NA,NA,"",   2.09902E+06,   2.13650E+06,   2.13650E+06
C:/temp/Job-41.odb,Step-1,Increment      1: Step Time =    1.000,"P-41-1",          1490,       73.9812,       155.338,            0.,NA,NA,"",   1.95351E+06,   1.90275E+06,   1.90275E+06
C:/temp/Job-41.odb,Step-1,Increment      1: Step Time =    1.000,"P-41-1",          1491,       139.002,       56.7676,            0.,NA,NA,"",   1.92530E+06,   1.80002E+06,   1.80002E+06
C:/temp/Job-41.odb,Step-1,Increment      1: Step Time =    1.000,"P-41-1",          1492,       146.671,       58.0150,            0.,NA,NA,"",   1.83212E+06,   1.61441E+06,   1.61441E+06
C:/temp/Job-41.odb,Step-1,Increment      1: Step Time =    1.000,"P-41-1",          1493,       165.970,       17.3695,            0.,NA,NA,"",   1.11999E+06,   1.10269E+06,   1.10269E+06
C:/temp/Job-41.odb,Step-1,Increment      1: Step Time =    1.000,"P-41-1",          1494,       181.202,       166.400,            0.,NA,NA,"",   1.10596E+06,   1.11502E+06,   1.11502E+06
C:/temp/Job-41.odb,Step-1,Increment      1: Step Time =    1.000,"P-41-1",          1495,       33.1084,       181.624,            0.,NA,NA,"",   1.70490E+06,   1.68657E+06,   1.68657E+06
C:/temp/Job-41.odb,Step-1,Increment      1: Step Time =    1.000,"P-41-1",          1496,       17.9171,       31.8973,            0.,NA,NA,"",   1.37459E+06,   1.42496E+06,   1.42496E+06
C:/temp/Job-41.odb,Step-1,Increment      1: Step Time =    1.000,"P-41-1",          1497,       39.9482,       17.4943,            0.,NA,NA,"",   1.70896E+06,   1.67758E+06,   1.67758E+06
C:/temp/Job-41.odb,Step-1,Increment      1: Step Time =    1.000,"P-41-1",          1498,       182.957,       40.8566,            0.,NA,NA,"",   1.10598E+06,   1.12909E+06,   1.12909E+06
C:/temp/Job-41.odb,Step-1,Increment      1: Step Time =    1.000,"P-41-1",          1499,       159.099,       182.415,            0.,NA,NA,"",   1.15145E+06,   1.12719E+06,   1.12719E+06
C:/temp/Job-41.odb,Step-1,Increment      1: Step Time =    1.000,"P-41-1",          1500,       17.3006,       159.401,            0.,NA,NA,"",   1.17947E+06,   1.23133E+06,   1.23133E+06
C:/temp/Job-41.odb,Step-1,Increment      1: Step Time =    1.000,"P-41-1",          1501,       37.8198,       15.5865,            0.,NA,NA,"",   1.72457E+06,   1.69961E+06,   1.69961E+06
C:/temp/Job-41.odb,Step-1,Increment      1: Step Time =    1.000,"P-41-1",          1502,       184.585,       38.6218,            0.,NA,NA,"",   1.07867E+06,   1.10547E+06,   1.10547E+06
C:/temp/Job-41.odb,Step-1,Increment      1: Step Time =    1.000,"P-41-1",          1503,       161.420,       184.130,            0.,NA,NA,"",   1.12275E+06,   1.10337E+06,   1.10337E+06
C:/temp/Job-41.odb,Step-1,Increment      1: Step Time =    1.000,"P-41-1",          1504,       15.5726,       161.567,            0.,NA,NA,"",   1.20653E+06,   1.26789E+06,   1.26789E+06
C:/temp/Job-41.odb,Step-1,Increment      1: Step Time =    1.000,"P-41-1",          1505,       182.374,       179.982,            0.,NA,NA,"",   1.04418E+06,   1.04885E+06,   1.04885E+06
C:/temp/Job-41.odb,Step-1,Increment      1: Step Time =    1.000,"P-41-1",          1506,       20.0882,       182.403,            0.,NA,NA,"",   1.72015E+06,   1.74387E+06,   1.74387E+06
C:/temp/Job-41.odb,Step-1,Increment      1: Step Time =    1.000,"P-41-1",          1507,       179.048,       18.4872,            0.,NA,NA,"",   1.05975E+06,   1.05846E+06,   1.05846E+06
C:/temp/Job-41.odb,Step-1,Increment      1: Step Time =    1.000,"P-41-1",          1508,       42.8378,       117.863,            0.,NA,NA,"",   347.126E+03,  -18.6525E+03,  -18.6525E+03
C:/temp/Job-41.odb,Step-1,Increment      1: Step Time =    1.000,"P-41-1",          1509,       155.356,       85.2866,            0.,NA,NA,"",   956.515E+03,  -48.2820E+03,  -48.2820E+03
C:/temp/Job-41.odb,Step-1,Increment      1: Step Time =    1.000,"P-41-1",          1510,       161.893,       97.4928,            0.,NA,NA,"",   400.884E+03,   25.9076E+03,   25.9076E+03
C:/temp/Job-41.odb,Step-1,Increment      1: Step Time =    1.000,"P-41-1",          1511,       64.6159,       46.0503,            0.,NA,NA,"",   1.79378E+06,   1.66395E+06,   1.66395E+06
C:/temp/Job-41.odb,Step-1,Increment      1: Step Time =    1.000,"P-41-1",          1512,       149.954,       57.8758,            0.,NA,NA,"",   1.80277E+06,   1.56328E+06,   1.56328E+06
C:/temp/Job-41.odb,Step-1,Increment      1: Step Time =    1.000,"P-41-1",          1513,       149.204,       16.4301,            0.,NA,NA,"",   1.16279E+06,   1.13726E+06,   1.13726E+06
C:/temp/Job-41.odb,Step-1,Increment      1: Step Time =    1.000,"P-41-1",          1514,       183.346,       148.703,            0.,NA,NA,"",   1.13010E+06,   1.17249E+06,   1.17249E+06
C:/temp/Job-41.odb,Step-1,Increment      1: Step Time =    1.000,"P-41-1",          1515,       56.6925,       182.131,            0.,NA,NA,"",   1.66200E+06,   1.60708E+06,   1.60708E+06
C:/temp/Job-41.odb,Step-1,Increment      1: Step Time =    1.000,"P-41-1",          1516,       17.3118,       51.5742,            0.,NA,NA,"",   924.595E+03,   967.578E+03,   967.578E+03
C:/temp/Job-41.odb,Step-1,Increment      1: Step Time =    1.000,"P-41-1",          1517,       109.130,       19.9293,            0.,NA,NA,"",   1.18808E+06,   1.25626E+06,   1.25626E+06
C:/temp/Job-41.odb,Step-1,Increment      1: Step Time =    1.000,"P-41-1",          1518,       104.857,       19.2759,            0.,NA,NA,"",   1.19059E+06,   1.25565E+06,   1.25565E+06
C:/temp/Job-41.odb,Step-1,Increment      1: Step Time =    1.000,"P-41-1",          1519,       181.767,       109.474,            0.,NA,NA,"",   807.185E+03,   926.809E+03,   926.809E+03
C:/temp/Job-41.odb,Step-1,Increment      1: Step Time =    1.000,"P-41-1",          1520,       181.466,       105.726,            0.,NA,NA,"",   747.255E+03,   845.350E+03,   845.350E+03
C:/temp/Job-41.odb,Step-1,Increment      1: Step Time =    1.000,"P-41-1",          1521,       91.6344,       181.777,            0.,NA,NA,"",   1.31523E+06,   1.33585E+06,   1.33585E+06
C:/temp/Job-41.odb,Step-1,Increment      1: Step Time =    1.000,"P-41-1",          1522,       95.1251,       182.059,            0.,NA,NA,"",   1.26207E+06,   1.29727E+06,   1.29727E+06
C:/temp/Job-41.odb,Step-1,Increment      1: Step Time =    1.000,"P-41-1",          1523,       19.2193,       90.6466,            0.,NA,NA,"",   159.895E+03,   183.264E+03,   183.264E+03
C:/temp/Job-41.odb,Step-1,Increment      1: Step Time =    1.000,"P-41-1",          1524,       19.1600,       94.7113,            0.,NA,NA,"",   133.585E+03,   153.711E+03,   153.711E+03
C:/temp/Job-41.odb,Step-1,Increment      1: Step Time =    1.000,"P-41-1",          1525,       73.8733,       19.4129,            0.,NA,NA,"",   1.57905E+06,   1.53662E+06,   1.53662E+06
C:/temp/Job-41.odb,Step-1,Increment      1: Step Time =    1.000,"P-41-1",          1526,       51.3837,       19.3892,            0.,NA,NA,"",   1.68870E+06,   1.62969E+06,   1.62969E+06
C:/temp/Job-41.odb,Step-1,Increment      1: Step Time =    1.000,"P-41-1",          1527,       39.1765,       20.7591,            0.,NA,NA,"",   1.69154E+06,   1.65240E+06,   1.65240E+06
C:/temp/Job-41.odb,Step-1,Increment      1: Step Time =    1.000,"P-41-1",          1528,       180.451,       73.5021,            0.,NA,NA,"",   1.09870E+06,   1.16654E+06,   1.16654E+06
C:/temp/Job-41.odb,Step-1,Increment      1: Step Time =    1.000,"P-41-1",          1529,       180.902,       51.2751,            0.,NA,NA,"",   1.18507E+06,   1.20409E+06,   1.20409E+06
C:/temp/Job-41.odb,Step-1,Increment      1: Step Time =    1.000,"P-41-1",          1530,       179.657,       40.6236,            0.,NA,NA,"",   1.16374E+06,   1.16780E+06,   1.16780E+06
C:/temp/Job-41.odb,Step-1,Increment      1: Step Time =    1.000,"P-41-1",          1531,       126.972,       180.684,            0.,NA,NA,"",   1.20079E+06,   1.21842E+06,   1.21842E+06
C:/temp/Job-41.odb,Step-1,Increment      1: Step Time =    1.000,"P-41-1",          1532,       148.497,       181.652,            0.,NA,NA,"",   1.20825E+06,   1.17794E+06,   1.17794E+06
C:/temp/Job-41.odb,Step-1,Increment      1: Step Time =    1.000,"P-41-1",          1533,       159.414,       179.089,            0.,NA,NA,"",   1.20569E+06,   1.17338E+06,   1.17338E+06
C:/temp/Job-41.odb,Step-1,Increment      1: Step Time =    1.000,"P-41-1",          1534,       19.1928,       126.366,            0.,NA,NA,"",   424.667E+03,   452.752E+03,   452.752E+03
C:/temp/Job-41.odb,Step-1,Increment      1: Step Time =    1.000,"P-41-1",          1535,       19.6999,       148.628,            0.,NA,NA,"",   959.973E+03,   990.412E+03,   990.412E+03
C:/temp/Job-41.odb,Step-1,Increment      1: Step Time =    1.000,"P-41-1",          1536,       20.3741,       159.920,            0.,NA,NA,"",   1.22892E+06,   1.26060E+06,   1.26060E+06
C:/temp/Job-41.odb,Step-1,Increment      1: Step Time =    1.000,"P-41-1",          1537,       126.384,       151.127,            0.,NA,NA,"",   2.09577E+06,   2.15745E+06,   2.15745E+06
C:/temp/Job-41.odb,Step-1,Increment      1: Step Time =    1.000,"P-41-1",          1538,       110.094,       157.283,            0.,NA,NA,"",   2.12632E+06,   2.30049E+06,   2.30049E+06
C:/temp/Job-41.odb,Step-1,Increment      1: Step Time =    1.000,"P-41-1",          1539,       41.4575,       82.4329,            0.,NA,NA,"",   333.450E+03,  -122.337E+03,  -122.337E+03
C:/temp/Job-41.odb,Step-1,Increment      1: Step Time =    1.000,"P-41-1",          1540,       40.1081,       104.801,            0.,NA,NA,"",   176.939E+03,  -193.014E+03,  -193.014E+03
C:/temp/Job-41.odb,Step-1,Increment      1: Step Time =    1.000,"P-41-1",          1541,       140.132,       48.0990,            0.,NA,NA,"",   1.87787E+06,   1.77580E+06,   1.77580E+06
C:/temp/Job-41.odb,Step-1,Increment      1: Step Time =    1.000,"P-41-1",          1542,       95.4034,       162.841,            0.,NA,NA,"",   1.90516E+06,   2.03272E+06,   2.03272E+06
C:/temp/Job-41.odb,Step-1,Increment      1: Step Time =    1.000,"P-41-1",          1543,       172.628,       34.1772,            0.,NA,NA,"",   1.23837E+06,   1.20937E+06,   1.20937E+06
C:/temp/Job-41.odb,Step-1,Increment      1: Step Time =    1.000,"P-41-1",          1544,       44.1993,       77.9220,            0.,NA,NA,"",   456.406E+03,  -57.7423E+03,  -57.7423E+03
C:/temp/Job-41.odb,Step-1,Increment      1: Step Time =    1.000,"P-41-1",          1545,       180.178,       163.059,            0.,NA,NA,"",   1.13760E+06,   1.14411E+06,   1.14411E+06
C:/temp/Job-41.odb,Step-1,Increment      1: Step Time =    1.000,"P-41-1",          1546,       163.099,       18.6020,            0.,NA,NA,"",   1.14893E+06,   1.12611E+06,   1.12611E+06
C:/temp/Job-41.odb,Step-1,Increment      1: Step Time =    1.000,"P-41-1",          1547,       120.394,       44.8202,            0.,NA,NA,"",   2.07889E+06,   2.20068E+06,   2.20068E+06
C:/temp/Job-41.odb,Step-1,Increment      1: Step Time =    1.000,"P-41-1",          1548,       155.124,       113.809,            0.,NA,NA,"",   913.828E+03,  -323.448E+03,  -323.448E+03
C:/temp/Job-41.odb,Step-1,Increment      1: Step Time =    1.000,"P-41-1",          1549,       59.9461,       160.715,            0.,NA,NA,"",   1.79050E+06,   1.65786E+06,   1.65786E+06
C:/temp/Job-41.odb,Step-1,Increment      1: Step Time =    1.000,"P-41-1",          1550,       26.4727,       26.5797,            0.,NA,NA,"",   1.57251E+06,   1.57130E+06,   1.57130E+06
C:/temp/Job-41.odb,Step-1,Increment      1: Step Time =    1.000,"P-41-1",          1551,       38.2958,       180.976,            0.,NA,NA,"",   1.69695E+06,   1.66168E+06,   1.66168E+06
C:/temp/Job-41.odb,Step-1,Increment      1: Step Time =    1.000,"P-41-1",          1552,       30.8017,       168.203,            0.,NA,NA,"",   1.51859E+06,   1.49106E+06,   1.49106E+06
C:/temp/Job-41.odb,Step-1,Increment      1: Step Time =    1.000,"P-41-1",          1553,       171.815,       169.366,            0.,NA,NA,"",   1.21370E+06,   1.18728E+06,   1.18728E+06
C:/temp/Job-41.odb,Step-1,Increment      1: Step Time =    1.000,"P-41-1",          1554,       60.0022,       51.3021,            0.,NA,NA,"",   1.60715E+06,   1.44782E+06,   1.44782E+06
C:/temp/Job-41.odb,Step-1,Increment      1: Step Time =    1.000,"P-41-1",          1555,       176.289,       44.6027,            0.,NA,NA,"",   1.25717E+06,   1.23586E+06,   1.23586E+06
C:/temp/Job-41.odb,Step-1,Increment      1: Step Time =    1.000,"P-41-1",          1556,       24.0649,       144.227,            0.,NA,NA,"",   902.855E+03,   908.470E+03,   908.470E+03
C:/temp/Job-41.odb,Step-1,Increment      1: Step Time =    1.000,"P-41-1",          1557,       55.3492,       23.2167,            0.,NA,NA,"",   1.71243E+06,   1.63363E+06,   1.63363E+06
C:/temp/Job-41.odb,Step-1,Increment      1: Step Time =    1.000,"P-41-1",          1558,       61.6535,       177.844,            0.,NA,NA,"",   1.69560E+06,   1.62366E+06,   1.62366E+06
C:/temp/Job-41.odb,Step-1,Increment      1: Step Time =    1.000,"P-41-1",          1559,       65.6961,       177.901,            0.,NA,NA,"",   1.68320E+06,   1.61519E+06,   1.61519E+06
C:/temp/Job-41.odb,Step-1,Increment      1: Step Time =    1.000,"P-41-1",          1560,       171.560,       26.0859,            0.,NA,NA,"",   1.16943E+06,   1.15050E+06,   1.15050E+06
C:/temp/Job-41.odb,Step-1,Increment      1: Step Time =    1.000,"P-41-1",          1561,       168.146,       32.9322,            0.,NA,NA,"",   1.29532E+06,   1.24897E+06,   1.24897E+06
C:/temp/Job-41.odb,Step-1,Increment      1: Step Time =    1.000,"P-41-1",          1562,       148.111,       178.647,            0.,NA,NA,"",   1.26749E+06,   1.23055E+06,   1.23055E+06
C:/temp/Job-41.odb,Step-1,Increment      1: Step Time =    1.000,"P-41-1",          1563,       165.813,       95.0180,            0.,NA,NA,"",   468.062E+03,   432.374E+03,   432.374E+03
C:/temp/Job-41.odb,Step-1,Increment      1: Step Time =    1.000,"P-41-1",          1564,       168.168,       98.6042,            0.,NA,NA,"",   399.838E+03,   433.365E+03,   433.365E+03
C:/temp/Job-41.odb,Step-1,Increment      1: Step Time =    1.000,"P-41-1",          1565,       120.131,       174.946,            0.,NA,NA,"",   1.34299E+06,   1.40521E+06,   1.40521E+06
C:/temp/Job-41.odb,Step-1,Increment      1: Step Time =    1.000,"P-41-1",          1566,       25.8260,       119.460,            0.,NA,NA,"",   300.549E+03,   303.781E+03,   303.781E+03
C:/temp/Job-41.odb,Step-1,Increment      1: Step Time =    1.000,"P-41-1",          1567,       81.6663,       24.4885,            0.,NA,NA,"",   1.62280E+06,   1.60997E+06,   1.60997E+06
C:/temp/Job-41.odb,Step-1,Increment      1: Step Time =    1.000,"P-41-1",          1568,       176.598,       82.3456,            0.,NA,NA,"",   960.346E+03,   1.01830E+06,   1.01830E+06
C:/temp/Job-41.odb,Step-1,Increment      1: Step Time =    1.000,"P-41-1",          1569,       115.999,       159.361,            0.,NA,NA,"",   1.92095E+06,   2.06440E+06,   2.06440E+06
C:/temp/Job-41.odb,Step-1,Increment      1: Step Time =    1.000,"P-41-1",          1570,       132.651,       160.290,            0.,NA,NA,"",   1.78694E+06,   1.78524E+06,   1.78524E+06
C:/temp/Job-41.odb,Step-1,Increment      1: Step Time =    1.000,"P-41-1",          1571,       102.699,       170.326,            0.,NA,NA,"",   1.53731E+06,   1.65667E+06,   1.65667E+06
C:/temp/Job-41.odb,Step-1,Increment      1: Step Time =    1.000,"P-41-1",          1572,       174.344,       91.3437,            0.,NA,NA,"",   672.879E+03,   745.542E+03,   745.542E+03
C:/temp/Job-41.odb,Step-1,Increment      1: Step Time =    1.000,"P-41-1",          1573,       176.128,       103.430,            0.,NA,NA,"",   594.184E+03,   677.147E+03,   677.147E+03
C:/temp/Job-41.odb,Step-1,Increment      1: Step Time =    1.000,"P-41-1",          1574,       171.861,       96.5245,            0.,NA,NA,"",   506.055E+03,   572.529E+03,   572.529E+03
C:/temp/Job-41.odb,Step-1,Increment      1: Step Time =    1.000,"P-41-1",          1575,       176.393,       123.198,            0.,NA,NA,"",   1.09832E+06,   1.11855E+06,   1.11855E+06
C:/temp/Job-41.odb,Step-1,Increment      1: Step Time =    1.000,"P-41-1",          1576,       179.563,       152.984,            0.,NA,NA,"",   1.20345E+06,   1.20672E+06,   1.20672E+06
C:/temp/Job-41.odb,Step-1,Increment      1: Step Time =    1.000,"P-41-1",          1577,       182.069,       161.280,            0.,NA,NA,"",   1.11560E+06,   1.13221E+06,   1.13221E+06
C:/temp/Job-41.odb,Step-1,Increment      1: Step Time =    1.000,"P-41-1",          1578,       108.915,       175.600,            0.,NA,NA,"",   1.32431E+06,   1.41825E+06,   1.41825E+06
C:/temp/Job-41.odb,Step-1,Increment      1: Step Time =    1.000,"P-41-1",          1579,       94.5300,       179.303,            0.,NA,NA,"",   1.35350E+06,   1.39894E+06,   1.39894E+06
C:/temp/Job-41.odb,Step-1,Increment      1: Step Time =    1.000,"P-41-1",          1580,       24.3601,       106.898,            0.,NA,NA,"",   116.353E+03,   130.128E+03,   130.128E+03
C:/temp/Job-41.odb,Step-1,Increment      1: Step Time =    1.000,"P-41-1",          1581,       23.0021,       88.0519,            0.,NA,NA,"",   171.554E+03,   190.085E+03,   190.085E+03
C:/temp/Job-41.odb,Step-1,Increment      1: Step Time =    1.000,"P-41-1",          1582,       22.7130,       76.0039,            0.,NA,NA,"",   381.564E+03,   399.179E+03,   399.179E+03
C:/temp/Job-41.odb,Step-1,Increment      1: Step Time =    1.000,"P-41-1",          1583,       22.2036,       48.3226,            0.,NA,NA,"",   1.06487E+06,   1.08168E+06,   1.08168E+06
C:/temp/Job-41.odb,Step-1,Increment      1: Step Time =    1.000,"P-41-1",          1584,       23.0812,       40.2649,            0.,NA,NA,"",   1.26214E+06,   1.27614E+06,   1.27614E+06
C:/temp/Job-41.odb,Step-1,Increment      1: Step Time =    1.000,"P-41-1",          1585,       92.3236,       23.3681,            0.,NA,NA,"",   1.45736E+06,   1.50675E+06,   1.50675E+06
C:/temp/Job-41.odb,Step-1,Increment      1: Step Time =    1.000,"P-41-1",          1586,       111.371,       25.8279,            0.,NA,NA,"",   1.35166E+06,   1.44618E+06,   1.44618E+06
C:/temp/Job-41.odb,Step-1,Increment      1: Step Time =    1.000,"P-41-1",          1587,       123.965,       23.2967,            0.,NA,NA,"",   1.30016E+06,   1.33878E+06,   1.33878E+06
C:/temp/Job-41.odb,Step-1,Increment      1: Step Time =    1.000,"P-41-1",          1588,       153.699,       19.8856,            0.,NA,NA,"",   1.22206E+06,   1.18775E+06,   1.18775E+06
C:/temp/Job-41.odb,Step-1,Increment      1: Step Time =    1.000,"P-41-1",          1589,       161.411,       17.0229,            0.,NA,NA,"",   1.13611E+06,   1.11482E+06,   1.11482E+06
C:/temp/Job-41.odb,Step-1,Increment      1: Step Time =    1.000,"P-41-1",          1590,       55.3301,       157.038,            0.,NA,NA,"",   1.68870E+06,   1.54207E+06,   1.54207E+06
C:/temp/Job-41.odb,Step-1,Increment      1: Step Time =    1.000,"P-41-1",          1591,       40.7455,       78.1253,            0.,NA,NA,"",   430.504E+03,   176.220E+03,   176.220E+03
C:/temp/Job-41.odb,Step-1,Increment      1: Step Time =    1.000,"P-41-1",          1592,       135.601,       43.0914,            0.,NA,NA,"",   1.85021E+06,   1.81470E+06,   1.81470E+06
C:/temp/Job-41.odb,Step-1,Increment      1: Step Time =    1.000,"P-41-1",          1593,       59.8331,       41.9504,            0.,NA,NA,"",   1.77065E+06,   1.62923E+06,   1.62923E+06
C:/temp/Job-41.odb,Step-1,Increment      1: Step Time =    1.000,"P-41-1",          1594,       146.743,       45.8881,            0.,NA,NA,"",   1.78221E+06,   1.64616E+06,   1.64616E+06
C:/temp/Job-41.odb,Step-1,Increment      1: Step Time =    1.000,"P-41-1",          1595,       162.419,       21.3455,            0.,NA,NA,"",   1.19074E+06,   1.16121E+06,   1.16121E+06
C:/temp/Job-41.odb,Step-1,Increment      1: Step Time =    1.000,"P-41-1",          1596,       25.7538,       86.5690,            0.,NA,NA,"",   187.857E+03,   196.851E+03,   196.851E+03
C:/temp/Job-41.odb,Step-1,Increment      1: Step Time =    1.000,"P-41-1",          1597,       28.3332,       109.367,            0.,NA,NA,"",   127.702E+03,   126.050E+03,   126.050E+03
C:/temp/Job-41.odb,Step-1,Increment      1: Step Time =    1.000,"P-41-1",          1598,       176.480,       111.421,            0.,NA,NA,"",   782.230E+03,   873.765E+03,   873.765E+03
C:/temp/Job-41.odb,Step-1,Increment      1: Step Time =    1.000,"P-41-1",          1599,       114.370,       26.8389,            0.,NA,NA,"",   1.38125E+06,   1.47637E+06,   1.47637E+06
C:/temp/Job-41.odb,Step-1,Increment      1: Step Time =    1.000,"P-41-1",          1600,       166.542,       36.7189,            0.,NA,NA,"",   1.36524E+06,   1.30092E+06,   1.30092E+06
C:/temp/Job-41.odb,Step-1,Increment      1: Step Time =    1.000,"P-41-1",          1601,       177.212,       161.918,            0.,NA,NA,"",   1.19265E+06,   1.18329E+06,   1.18329E+06
C:/temp/Job-41.odb,Step-1,Increment      1: Step Time =    1.000,"P-41-1",          1602,       157.958,       114.193,            0.,NA,NA,"",   918.535E+03,   245.048E+03,   245.048E+03
C:/temp/Job-41.odb,Step-1,Increment      1: Step Time =    1.000,"P-41-1",          1603,       159.253,       116.833,            0.,NA,NA,"",   1.01970E+06,   700.082E+03,   700.082E+03
C:/temp/Job-41.odb,Step-1,Increment      1: Step Time =    1.000,"P-41-1",          1604,       162.732,       118.891,            0.,NA,NA,"",   1.08467E+06,   848.255E+03,   848.255E+03
C:/temp/Job-41.odb,Step-1,Increment      1: Step Time =    1.000,"P-41-1",          1605,       88.8077,       166.298,            0.,NA,NA,"",   1.81240E+06,   1.87818E+06,   1.87818E+06
C:/temp/Job-41.odb,Step-1,Increment      1: Step Time =    1.000,"P-41-1",          1606,       28.4465,       106.341,            0.,NA,NA,"",   95.3027E+03,   95.8079E+03,   95.8079E+03
C:/temp/Job-41.odb,Step-1,Increment      1: Step Time =    1.000,"P-41-1",          1607,       41.3798,       95.2843,            0.,NA,NA,"",   200.354E+03,  -220.993E+03,  -220.993E+03
C:/temp/Job-41.odb,Step-1,Increment      1: Step Time =    1.000,"P-41-1",          1608,       50.3386,       154.208,            0.,NA,NA,"",   1.56460E+06,   1.42041E+06,   1.42041E+06
C:/temp/Job-41.odb,Step-1,Increment      1: Step Time =    1.000,"P-41-1",          1609,       117.967,       37.7264,            0.,NA,NA,"",   1.77201E+06,   1.89254E+06,   1.89254E+06
C:/temp/Job-41.odb,Step-1,Increment      1: Step Time =    1.000,"P-41-1",          1610,       27.6009,       75.4684,            0.,NA,NA,"",   419.763E+03,   412.129E+03,   412.129E+03
C:/temp/Job-41.odb,Step-1,Increment      1: Step Time =    1.000,"P-41-1",          1611,       92.6741,       28.7574,            0.,NA,NA,"",   1.61376E+06,   1.68731E+06,   1.68731E+06
C:/temp/Job-41.odb,Step-1,Increment      1: Step Time =    1.000,"P-41-1",          1612,       124.065,       27.7371,            0.,NA,NA,"",   1.43427E+06,   1.48629E+06,   1.48629E+06
C:/temp/Job-41.odb,Step-1,Increment      1: Step Time =    1.000,"P-41-1",          1613,       170.788,       124.733,            0.,NA,NA,"",   1.20687E+06,   1.12035E+06,   1.12035E+06
C:/temp/Job-41.odb,Step-1,Increment      1: Step Time =    1.000,"P-41-1",          1614,       90.4032,       171.202,            0.,NA,NA,"",   1.63661E+06,   1.69288E+06,   1.69288E+06
C:/temp/Job-41.odb,Step-1,Increment      1: Step Time =    1.000,"P-41-1",          1615,       84.6852,       27.4458,            0.,NA,NA,"",   1.66104E+06,   1.67161E+06,   1.67161E+06
C:/temp/Job-41.odb,Step-1,Increment      1: Step Time =    1.000,"P-41-1",          1616,       80.2555,       33.0306,            0.,NA,NA,"",   1.83443E+06,   1.82618E+06,   1.82618E+06
C:/temp/Job-41.odb,Step-1,Increment      1: Step Time =    1.000,"P-41-1",          1617,       42.1458,       173.618,            0.,NA,NA,"",   1.66943E+06,   1.60219E+06,   1.60219E+06
C:/temp/Job-41.odb,Step-1,Increment      1: Step Time =    1.000,"P-41-1",          1618,       55.7328,       42.3098,            0.,NA,NA,"",   1.70651E+06,   1.55949E+06,   1.55949E+06
C:/temp/Job-41.odb,Step-1,Increment      1: Step Time =    1.000,"P-41-1",          1619,       59.3147,       169.175,            0.,NA,NA,"",   1.77705E+06,   1.66920E+06,   1.66920E+06
C:/temp/Job-41.odb,Step-1,Increment      1: Step Time =    1.000,"P-41-1",          1620,       55.3268,       169.309,            0.,NA,NA,"",   1.74936E+06,   1.64173E+06,   1.64173E+06
C:/temp/Job-41.odb,Step-1,Increment      1: Step Time =    1.000,"P-41-1",          1621,       166.321,       166.126,            0.,NA,NA,"",   1.32997E+06,   1.27434E+06,   1.27434E+06
C:/temp/Job-41.odb,Step-1,Increment      1: Step Time =    1.000,"P-41-1",          1622,       164.092,       35.3874,            0.,NA,NA,"",   1.38818E+06,   1.31817E+06,   1.31817E+06
C:/temp/Job-41.odb,Step-1,Increment      1: Step Time =    1.000,"P-41-1",          1623,       173.575,       46.7934,            0.,NA,NA,"",   1.32335E+06,   1.27806E+06,   1.27806E+06
C:/temp/Job-41.odb,Step-1,Increment      1: Step Time =    1.000,"P-41-1",          1624,       131.389,       39.5264,            0.,NA,NA,"",   1.78775E+06,   1.79765E+06,   1.79765E+06
C:/temp/Job-41.odb,Step-1,Increment      1: Step Time =    1.000,"P-41-1",          1625,       54.6333,       38.8078,            0.,NA,NA,"",   1.72735E+06,   1.59205E+06,   1.59205E+06
C:/temp/Job-41.odb,Step-1,Increment      1: Step Time =    1.000,"P-41-1",          1626,       39.0446,       171.942,            0.,NA,NA,"",   1.64019E+06,   1.58002E+06,   1.58002E+06
C:/temp/Job-41.odb,Step-1,Increment      1: Step Time =    1.000,"P-41-1",          1627,       131.989,       166.392,            0.,NA,NA,"",   1.61451E+06,   1.62189E+06,   1.62189E+06
C:/temp/Job-41.odb,Step-1,Increment      1: Step Time =    1.000,"P-41-1",          1628,       159.373,       159.687,            0.,NA,NA,"",   1.53120E+06,   1.42145E+06,   1.42145E+06
C:/temp/Job-41.odb,Step-1,Increment      1: Step Time =    1.000,"P-41-1",          1629,       121.713,       172.012,            0.,NA,NA,"",   1.43187E+06,   1.49688E+06,   1.49688E+06
C:/temp/Job-41.odb,Step-1,Increment      1: Step Time =    1.000,"P-41-1",          1630,       28.1920,       41.7098,            0.,NA,NA,"",   1.29713E+06,   1.27853E+06,   1.27853E+06
C:/temp/Job-41.odb,Step-1,Increment      1: Step Time =    1.000,"P-41-1",          1631,       161.602,       36.7630,            0.,NA,NA,"",   1.43514E+06,   1.35419E+06,   1.35419E+06
C:/temp/Job-41.odb,Step-1,Increment      1: Step Time =    1.000,"P-41-1",          1632,       29.7610,       72.4954,            0.,NA,NA,"",   502.285E+03,   477.788E+03,   477.788E+03
C:/temp/Job-41.odb,Step-1,Increment      1: Step Time =    1.000,"P-41-1",          1633,       50.6419,       53.9648,            0.,NA,NA,"",   1.40036E+06,   1.23805E+06,   1.23805E+06
C:/temp/Job-41.odb,Step-1,Increment      1: Step Time =    1.000,"P-41-1",          1634,       26.5846,       66.8317,            0.,NA,NA,"",   631.256E+03,   623.528E+03,   623.528E+03
C:/temp/Job-41.odb,Step-1,Increment      1: Step Time =    1.000,"P-41-1",          1635,       26.1597,       90.2886,            0.,NA,NA,"",   141.688E+03,   149.510E+03,   149.510E+03
C:/temp/Job-41.odb,Step-1,Increment      1: Step Time =    1.000,"P-41-1",          1636,       77.6100,       29.2276,            0.,NA,NA,"",   1.75800E+06,   1.72631E+06,   1.72631E+06
C:/temp/Job-41.odb,Step-1,Increment      1: Step Time =    1.000,"P-41-1",          1637,       47.1163,       55.5449,            0.,NA,NA,"",   1.27736E+06,   1.12438E+06,   1.12438E+06
C:/temp/Job-41.odb,Step-1,Increment      1: Step Time =    1.000,"P-41-1",          1638,       127.713,       172.532,            0.,NA,NA,"",   1.43613E+06,   1.46740E+06,   1.46740E+06
C:/temp/Job-41.odb,Step-1,Increment      1: Step Time =    1.000,"P-41-1",          1639,       130.962,       172.049,            0.,NA,NA,"",   1.45693E+06,   1.46831E+06,   1.46831E+06
C:/temp/Job-41.odb,Step-1,Increment      1: Step Time =    1.000,"P-41-1",          1640,       45.3723,       155.022,            0.,NA,NA,"",   1.49239E+06,   1.36834E+06,   1.36834E+06
C:/temp/Job-41.odb,Step-1,Increment      1: Step Time =    1.000,"P-41-1",          1641,       27.4449,       98.8841,            0.,NA,NA,"",   65.0144E+03,   72.7003E+03,   72.7003E+03
C:/temp/Job-41.odb,Step-1,Increment      1: Step Time =    1.000,"P-41-1",          1642,       26.9295,       127.142,            0.,NA,NA,"",   473.748E+03,   467.738E+03,   467.738E+03
C:/temp/Job-41.odb,Step-1,Increment      1: Step Time =    1.000,"P-41-1",          1643,       28.5932,       129.971,            0.,NA,NA,"",   563.323E+03,   546.416E+03,   546.416E+03
C:/temp/Job-41.odb,Step-1,Increment      1: Step Time =    1.000,"P-41-1",          1644,       174.299,       144.976,            0.,NA,NA,"",   1.33494E+06,   1.28697E+06,   1.28697E+06
C:/temp/Job-41.odb,Step-1,Increment      1: Step Time =    1.000,"P-41-1",          1645,       173.316,       140.698,            0.,NA,NA,"",   1.35479E+06,   1.29207E+06,   1.29207E+06
C:/temp/Job-41.odb,Step-1,Increment      1: Step Time =    1.000,"P-41-1",          1646,       114.923,       34.9827,            0.,NA,NA,"",   1.68473E+06,   1.81563E+06,   1.81563E+06
C:/temp/Job-41.odb,Step-1,Increment      1: Step Time =    1.000,"P-41-1",          1647,       62.4524,       173.495,            0.,NA,NA,"",   1.75171E+06,   1.66384E+06,   1.66384E+06
C:/temp/Job-41.odb,Step-1,Increment      1: Step Time =    1.000,"P-41-1",          1648,       167.270,       62.8747,            0.,NA,NA,"",   1.48013E+06,   1.32529E+06,   1.32529E+06
C:/temp/Job-41.odb,Step-1,Increment      1: Step Time =    1.000,"P-41-1",          1649,       110.026,       30.7235,            0.,NA,NA,"",   1.52653E+06,   1.64844E+06,   1.64844E+06
C:/temp/Job-41.odb,Step-1,Increment      1: Step Time =    1.000,"P-41-1",          1650,       168.502,       138.366,            0.,NA,NA,"",   1.46008E+06,   1.32419E+06,   1.32419E+06
C:/temp/Job-41.odb,Step-1,Increment      1: Step Time =    1.000,"P-41-1",          1651,       147.487,       174.336,            0.,NA,NA,"",   1.36129E+06,   1.31465E+06,   1.31465E+06
C:/temp/Job-41.odb,Step-1,Increment      1: Step Time =    1.000,"P-41-1",          1652,       144.666,       172.477,            0.,NA,NA,"",   1.42538E+06,   1.37814E+06,   1.37814E+06
C:/temp/Job-41.odb,Step-1,Increment      1: Step Time =    1.000,"P-41-1",          1653,       28.4128,       144.300,            0.,NA,NA,"",   957.391E+03,   936.824E+03,   936.824E+03
C:/temp/Job-41.odb,Step-1,Increment      1: Step Time =    1.000,"P-41-1",          1654,       29.3474,       152.302,            0.,NA,NA,"",   1.17337E+06,   1.14505E+06,   1.14505E+06
C:/temp/Job-41.odb,Step-1,Increment      1: Step Time =    1.000,"P-41-1",          1655,       165.678,       155.449,            0.,NA,NA,"",   1.46481E+06,   1.36704E+06,   1.36704E+06
C:/temp/Job-41.odb,Step-1,Increment      1: Step Time =    1.000,"P-41-1",          1656,       150.040,       24.1937,            0.,NA,NA,"",   1.31943E+06,   1.27434E+06,   1.27434E+06
C:/temp/Job-41.odb,Step-1,Increment      1: Step Time =    1.000,"P-41-1",          1657,       142.430,       26.5266,            0.,NA,NA,"",   1.40651E+06,   1.36710E+06,   1.36710E+06
C:/temp/Job-41.odb,Step-1,Increment      1: Step Time =    1.000,"P-41-1",          1658,       125.040,       31.2588,            0.,NA,NA,"",   1.53439E+06,   1.58988E+06,   1.58988E+06
C:/temp/Job-41.odb,Step-1,Increment      1: Step Time =    1.000,"P-41-1",          1659,       161.985,       53.0883,            0.,NA,NA,"",   1.60703E+06,   1.43754E+06,   1.43754E+06
C:/temp/Job-41.odb,Step-1,Increment      1: Step Time =    1.000,"P-41-1",          1660,       25.0394,       57.3226,            0.,NA,NA,"",   871.250E+03,   871.269E+03,   871.269E+03
C:/temp/Job-41.odb,Step-1,Increment      1: Step Time =    1.000,"P-41-1",          1661,       62.0082,       33.8271,            0.,NA,NA,"",   1.81018E+06,   1.69622E+06,   1.69622E+06
C:/temp/Job-41.odb,Step-1,Increment      1: Step Time =    1.000,"P-41-1",          1662,       52.9226,       45.8340,            0.,NA,NA,"",   1.59305E+06,   1.44460E+06,   1.44460E+06
C:/temp/Job-41.odb,Step-1,Increment      1: Step Time =    1.000,"P-41-1",          1663,       155.720,       42.7107,            0.,NA,NA,"",   1.61489E+06,   1.48963E+06,   1.48963E+06
C:/temp/Job-41.odb,Step-1,Increment      1: Step Time =    1.000,"P-41-1",          1664,       132.388,       34.7306,            0.,NA,NA,"",   1.64301E+06,   1.64696E+06,   1.64696E+06
C:/temp/Job-41.odb,Step-1,Increment      1: Step Time =    1.000,"P-41-1",          1665,       164.067,       45.2367,            0.,NA,NA,"",   1.51233E+06,   1.39983E+06,   1.39983E+06
C:/temp/Job-41.odb,Step-1,Increment      1: Step Time =    1.000,"P-41-1",          1666,       166.235,       57.0458,            0.,NA,NA,"",   1.51851E+06,   1.37111E+06,   1.37111E+06
C:/temp/Job-41.odb,Step-1,Increment      1: Step Time =    1.000,"P-41-1",          1667,       154.862,       26.2008,            0.,NA,NA,"",   1.33044E+06,   1.27861E+06,   1.27861E+06
C:/temp/Job-41.odb,Step-1,Increment      1: Step Time =    1.000,"P-41-1",          1668,       32.4382,       144.241,            0.,NA,NA,"",   1.01026E+06,   960.880E+03,   960.880E+03
C:/temp/Job-41.odb,Step-1,Increment      1: Step Time =    1.000,"P-41-1",          1669,       169.154,       141.758,            0.,NA,NA,"",   1.45616E+06,   1.33638E+06,   1.33638E+06
C:/temp/Job-41.odb,Step-1,Increment      1: Step Time =    1.000,"P-41-1",          1670,       147.207,       27.6652,            0.,NA,NA,"",   1.41964E+06,   1.36689E+06,   1.36689E+06
C:/temp/Job-41.odb,Step-1,Increment      1: Step Time =    1.000,"P-41-1",          1671,       144.925,       29.8050,            0.,NA,NA,"",   1.47724E+06,   1.42389E+06,   1.42389E+06
C:/temp/Job-41.odb,Step-1,Increment      1: Step Time =    1.000,"P-41-1",          1672,       49.1513,       50.8099,            0.,NA,NA,"",   1.45539E+06,   1.30180E+06,   1.30180E+06
C:/temp/Job-41.odb,Step-1,Increment      1: Step Time =    1.000,"P-41-1",          1673,       40.9862,       47.3741,            0.,NA,NA,"",   1.36537E+06,   1.26213E+06,   1.26213E+06
C:/temp/Job-41.odb,Step-1,Increment      1: Step Time =    1.000,"P-41-1",          1674,       147.540,       32.0888,            0.,NA,NA,"",   1.52429E+06,   1.45451E+06,   1.45451E+06
C:/temp/Job-41.odb,Step-1,Increment      1: Step Time =    1.000,"P-41-1",          1675,       29.6535,       57.9609,            0.,NA,NA,"",   915.134E+03,   885.468E+03,   885.468E+03
C:/temp/Job-41.odb,Step-1,Increment      1: Step Time =    1.000,"P-41-1",          1676,       158.957,       43.5382,            0.,NA,NA,"",   1.57351E+06,   1.45126E+06,   1.45126E+06
C:/temp/Job-41.odb,Step-1,Increment      1: Step Time =    1.000,"P-41-1",          1677,       158.791,       37.7662,            0.,NA,NA,"",   1.47598E+06,   1.38623E+06,   1.38623E+06
C:/temp/Job-41.odb,Step-1,Increment      1: Step Time =    1.000,"P-41-1",          1678,       156.158,       32.9276,            0.,NA,NA,"",   1.45038E+06,   1.37307E+06,   1.37307E+06
C:/temp/Job-41.odb,Step-1,Increment      1: Step Time =    1.000,"P-41-1",          1679,       44.7270,       50.9127,            0.,NA,NA,"",   1.36201E+06,   1.22977E+06,   1.22977E+06
C:/temp/Job-41.odb,Step-1,Increment      1: Step Time =    1.000,"P-41-1",          1680,       50.6530,       45.8698,            0.,NA,NA,"",   1.54980E+06,   1.40920E+06,   1.40920E+06
C:/temp/Job-41.odb,Step-1,Increment      1: Step Time =    1.000,"P-41-1",          1681,       49.5888,       43.9753,            0.,NA,NA,"",   1.56976E+06,   1.43612E+06,   1.43612E+06
C:/temp/Job-41.odb,Step-1,Increment      1: Step Time =    1.000,"P-41-1",          1682,       34.0941,       53.0474,            0.,NA,NA,"",   1.11989E+06,   1.05735E+06,   1.05735E+06
C:/temp/Job-41.odb,Step-1,Increment      1: Step Time =    1.000,"P-41-1",          1683,       38.0878,       51.0067,            0.,NA,NA,"",   1.23047E+06,   1.14271E+06,   1.14271E+06
