ODB Name,Step,Frame,Part Instance Name,    Node Label,X,Y,Z,Section Name,Material Name,Section Point,       S-Mises,S-Max. In-Plane Principal (Abs),S-Max. Principal (Abs)
C:/temp/Job-42.odb,Step-1,Increment      1: Step Time =    1.000,"P-42-1",             1,       85.0896,       176.562,            0.,NA,NA,"",   5.35621E+06,   5.32803E+06,   5.32803E+06
C:/temp/Job-42.odb,Step-1,Increment      1: Step Time =    1.000,"P-42-1",             2,       70.7292,       172.299,            0.,NA,NA,"",   1.65199E+06,  -210.131E+03,  -210.131E+03
C:/temp/Job-42.odb,Step-1,Increment      1: Step Time =    1.000,"P-42-1",             3,       57.4483,       165.371,            0.,NA,NA,"",   3.61895E+06,  -3.64283E+06,  -3.64283E+06
C:/temp/Job-42.odb,Step-1,Increment      1: Step Time =    1.000,"P-42-1",             4,       45.7368,       156.031,            0.,NA,NA,"",   4.37406E+06,  -4.42197E+06,  -4.42197E+06
C:/temp/Job-42.odb,Step-1,Increment      1: Step Time =    1.000,"P-42-1",             5,       36.0266,       144.625,            0.,NA,NA,"",   3.59850E+06,  -3.63184E+06,  -3.63184E+06
C:/temp/Job-42.odb,Step-1,Increment      1: Step Time =    1.000,"P-42-1",             6,       28.6758,       131.573,            0.,NA,NA,"",   1.99955E+06,  -2.03138E+06,  -2.03138E+06
C:/temp/Job-42.odb,Step-1,Increment      1: Step Time =    1.000,"P-42-1",             7,       23.9556,       117.357,            0.,NA,NA,"",   981.114E+03,  -997.470E+03,  -997.470E+03
C:/temp/Job-42.odb,Step-1,Increment      1: Step Time =    1.000,"P-42-1",             8,       22.0401,       102.500,            0.,NA,NA,"",   680.715E+03,  -692.083E+03,  -692.083E+03
C:/temp/Job-42.odb,Step-1,Increment      1: Step Time =    1.000,"P-42-1",             9,       22.9998,       87.5512,            0.,NA,NA,"",   815.609E+03,  -829.707E+03,  -829.707E+03
C:/temp/Job-42.odb,Step-1,Increment      1: Step Time =    1.000,"P-42-1",            10,       26.7995,       73.0615,            0.,NA,NA,"",   1.56196E+06,  -1.58194E+06,  -1.58194E+06
C:/temp/Job-42.odb,Step-1,Increment      1: Step Time =    1.000,"P-42-1",            11,       33.2989,       59.5654,            0.,NA,NA,"",   3.00180E+06,  -3.03405E+06,  -3.03405E+06
C:/temp/Job-42.odb,Step-1,Increment      1: Step Time =    1.000,"P-42-1",            12,       42.2583,       47.5605,            0.,NA,NA,"",   4.23581E+06,  -4.27943E+06,  -4.27943E+06
C:/temp/Job-42.odb,Step-1,Increment      1: Step Time =    1.000,"P-42-1",            13,       53.3474,       37.4897,            0.,NA,NA,"",   4.11120E+06,  -4.14796E+06,  -4.14796E+06
C:/temp/Job-42.odb,Step-1,Increment      1: Step Time =    1.000,"P-42-1",            14,       66.1571,       29.7244,            0.,NA,NA,"",   2.19823E+06,  -2.15772E+06,  -2.15772E+06
C:/temp/Job-42.odb,Step-1,Increment      1: Step Time =    1.000,"P-42-1",            15,       80.2149,       24.5510,            0.,NA,NA,"",   3.11251E+06,   3.02674E+06,   3.02674E+06
C:/temp/Job-42.odb,Step-1,Increment      1: Step Time =    1.000,"P-42-1",            16,       95.0025,       22.1603,            0.,NA,NA,"",   9.96204E+06,   9.98313E+06,   9.98313E+06
C:/temp/Job-42.odb,Step-1,Increment      1: Step Time =    1.000,"P-42-1",            17,       109.974,       22.6404,            0.,NA,NA,"",   13.3438E+06,   13.4572E+06,   13.4572E+06
C:/temp/Job-42.odb,Step-1,Increment      1: Step Time =    1.000,"P-42-1",            18,       119.785,       24.5510,            0.,NA,NA,"",   12.9752E+06,   13.1130E+06,   13.1130E+06
C:/temp/Job-42.odb,Step-1,Increment      1: Step Time =    1.000,"P-42-1",            19,       133.843,       29.7244,            0.,NA,NA,"",   10.5348E+06,   10.6465E+06,   10.6465E+06
C:/temp/Job-42.odb,Step-1,Increment      1: Step Time =    1.000,"P-42-1",            20,       146.653,       37.4897,            0.,NA,NA,"",   6.96457E+06,   7.04797E+06,   7.04797E+06
C:/temp/Job-42.odb,Step-1,Increment      1: Step Time =    1.000,"P-42-1",            21,       157.742,       47.5605,            0.,NA,NA,"",   4.06405E+06,   4.13586E+06,   4.13586E+06
C:/temp/Job-42.odb,Step-1,Increment      1: Step Time =    1.000,"P-42-1",            22,       166.701,       59.5654,            0.,NA,NA,"",   1.58873E+06,   1.53664E+06,   1.53664E+06
C:/temp/Job-42.odb,Step-1,Increment      1: Step Time =    1.000,"P-42-1",            23,       173.201,       73.0615,            0.,NA,NA,"",   3.08101E+06,  -3.00188E+06,  -3.00188E+06
C:/temp/Job-42.odb,Step-1,Increment      1: Step Time =    1.000,"P-42-1",            24,       177.000,       87.5512,            0.,NA,NA,"",   7.27289E+06,  -7.31954E+06,  -7.31954E+06
C:/temp/Job-42.odb,Step-1,Increment      1: Step Time =    1.000,"P-42-1",            25,       177.960,       102.500,            0.,NA,NA,"",   8.69089E+06,  -8.75324E+06,  -8.75324E+06
C:/temp/Job-42.odb,Step-1,Increment      1: Step Time =    1.000,"P-42-1",            26,       176.044,       117.357,            0.,NA,NA,"",   5.75034E+06,  -5.77683E+06,  -5.77683E+06
C:/temp/Job-42.odb,Step-1,Increment      1: Step Time =    1.000,"P-42-1",            27,       171.324,       131.573,            0.,NA,NA,"",   1.52533E+06,  -1.38525E+06,  -1.38525E+06
C:/temp/Job-42.odb,Step-1,Increment      1: Step Time =    1.000,"P-42-1",            28,       163.973,       144.625,            0.,NA,NA,"",   2.50737E+06,   2.49743E+06,   2.49743E+06
C:/temp/Job-42.odb,Step-1,Increment      1: Step Time =    1.000,"P-42-1",            29,       154.263,       156.031,            0.,NA,NA,"",   5.03198E+06,   5.09900E+06,   5.09900E+06
C:/temp/Job-42.odb,Step-1,Increment      1: Step Time =    1.000,"P-42-1",            30,       142.552,       165.371,            0.,NA,NA,"",   8.17449E+06,   8.26733E+06,   8.26733E+06
C:/temp/Job-42.odb,Step-1,Increment      1: Step Time =    1.000,"P-42-1",            31,       129.271,       172.299,            0.,NA,NA,"",   11.8004E+06,   11.9143E+06,   11.9143E+06
C:/temp/Job-42.odb,Step-1,Increment      1: Step Time =    1.000,"P-42-1",            32,       114.910,       176.562,            0.,NA,NA,"",   12.2153E+06,   12.4561E+06,   12.4561E+06
C:/temp/Job-42.odb,Step-1,Increment      1: Step Time =    1.000,"P-42-1",            33,          100.,          178.,            0.,NA,NA,"",   11.2467E+06,   11.3377E+06,   11.3377E+06
C:/temp/Job-42.odb,Step-1,Increment      1: Step Time =    1.000,"P-42-1",            34,          190.,            0.,            0.,NA,NA,"",   844.091E+03,   829.451E+03,   829.451E+03
C:/temp/Job-42.odb,Step-1,Increment      1: Step Time =    1.000,"P-42-1",            35,          180.,            0.,            0.,NA,NA,"",   458.940E+03,   425.132E+03,   425.132E+03
C:/temp/Job-42.odb,Step-1,Increment      1: Step Time =    1.000,"P-42-1",            36,          170.,            0.,            0.,NA,NA,"",   380.612E+03,  -324.049E+03,  -324.049E+03
C:/temp/Job-42.odb,Step-1,Increment      1: Step Time =    1.000,"P-42-1",            37,          160.,            0.,            0.,NA,NA,"",   1.07171E+06,  -1.06334E+06,  -1.06334E+06
C:/temp/Job-42.odb,Step-1,Increment      1: Step Time =    1.000,"P-42-1",            38,          150.,            0.,            0.,NA,NA,"",   2.14411E+06,  -2.12227E+06,  -2.12227E+06
C:/temp/Job-42.odb,Step-1,Increment      1: Step Time =    1.000,"P-42-1",            39,          140.,            0.,            0.,NA,NA,"",   3.21327E+06,  -3.19806E+06,  -3.19806E+06
C:/temp/Job-42.odb,Step-1,Increment      1: Step Time =    1.000,"P-42-1",            40,          130.,            0.,            0.,NA,NA,"",   4.09871E+06,  -4.07497E+06,  -4.07497E+06
C:/temp/Job-42.odb,Step-1,Increment      1: Step Time =    1.000,"P-42-1",            41,          120.,            0.,            0.,NA,NA,"",   4.35841E+06,  -4.34211E+06,  -4.34211E+06
C:/temp/Job-42.odb,Step-1,Increment      1: Step Time =    1.000,"P-42-1",            42,          110.,            0.,            0.,NA,NA,"",   3.59147E+06,  -3.54736E+06,  -3.54736E+06
C:/temp/Job-42.odb,Step-1,Increment      1: Step Time =    1.000,"P-42-1",            43,          100.,            0.,            0.,NA,NA,"",   1.92798E+06,  -1.62752E+06,  -1.62752E+06
C:/temp/Job-42.odb,Step-1,Increment      1: Step Time =    1.000,"P-42-1",            44,           90.,            0.,            0.,NA,NA,"",   2.01444E+06,   1.78199E+06,   1.78199E+06
C:/temp/Job-42.odb,Step-1,Increment      1: Step Time =    1.000,"P-42-1",            45,           80.,            0.,            0.,NA,NA,"",   4.27313E+06,   4.24043E+06,   4.24043E+06
C:/temp/Job-42.odb,Step-1,Increment      1: Step Time =    1.000,"P-42-1",            46,           70.,            0.,            0.,NA,NA,"",   6.38264E+06,   6.34000E+06,   6.34000E+06
C:/temp/Job-42.odb,Step-1,Increment      1: Step Time =    1.000,"P-42-1",            47,           60.,            0.,            0.,NA,NA,"",   7.56023E+06,   7.53371E+06,   7.53371E+06
C:/temp/Job-42.odb,Step-1,Increment      1: Step Time =    1.000,"P-42-1",            48,           50.,            0.,            0.,NA,NA,"",   7.91967E+06,   7.90165E+06,   7.90165E+06
C:/temp/Job-42.odb,Step-1,Increment      1: Step Time =    1.000,"P-42-1",            49,           40.,            0.,            0.,NA,NA,"",   7.76791E+06,   7.75301E+06,   7.75301E+06
C:/temp/Job-42.odb,Step-1,Increment      1: Step Time =    1.000,"P-42-1",            50,           30.,            0.,            0.,NA,NA,"",   7.35239E+06,   7.35149E+06,   7.35149E+06
C:/temp/Job-42.odb,Step-1,Increment      1: Step Time =    1.000,"P-42-1",            51,           20.,            0.,            0.,NA,NA,"",   6.92345E+06,   6.92232E+06,   6.92232E+06
C:/temp/Job-42.odb,Step-1,Increment      1: Step Time =    1.000,"P-42-1",            52,           10.,            0.,            0.,NA,NA,"",   6.63486E+06,   6.63147E+06,   6.63147E+06
C:/temp/Job-42.odb,Step-1,Increment      1: Step Time =    1.000,"P-42-1",            53,          200.,            0.,            0.,NA,NA,"",   991.265E+03,   981.546E+03,   981.546E+03
C:/temp/Job-42.odb,Step-1,Increment      1: Step Time =    1.000,"P-42-1",            54,            0.,            0.,            0.,NA,NA,"",   6.91601E+06,   7.27245E+06,   7.27245E+06
C:/temp/Job-42.odb,Step-1,Increment      1: Step Time =    1.000,"P-42-1",            55,          200.,          190.,            0.,NA,NA,"",   1.08858E+06,   989.982E+03,   989.982E+03
C:/temp/Job-42.odb,Step-1,Increment      1: Step Time =    1.000,"P-42-1",            56,          200.,          180.,            0.,NA,NA,"",   1.33572E+06,   1.01645E+06,   1.01645E+06
C:/temp/Job-42.odb,Step-1,Increment      1: Step Time =    1.000,"P-42-1",            57,          200.,          170.,            0.,NA,NA,"",   1.44814E+06,   1.04093E+06,   1.04093E+06
C:/temp/Job-42.odb,Step-1,Increment      1: Step Time =    1.000,"P-42-1",            58,          200.,          160.,            0.,NA,NA,"",   1.19397E+06,   1.07279E+06,   1.07279E+06
C:/temp/Job-42.odb,Step-1,Increment      1: Step Time =    1.000,"P-42-1",            59,          200.,          150.,            0.,NA,NA,"",   1.17086E+06,   1.34254E+06,   1.34254E+06
C:/temp/Job-42.odb,Step-1,Increment      1: Step Time =    1.000,"P-42-1",            60,          200.,          140.,            0.,NA,NA,"",   2.57978E+06,   2.90713E+06,   2.90713E+06
C:/temp/Job-42.odb,Step-1,Increment      1: Step Time =    1.000,"P-42-1",            61,          200.,          130.,            0.,NA,NA,"",   4.82303E+06,   5.20970E+06,   5.20970E+06
C:/temp/Job-42.odb,Step-1,Increment      1: Step Time =    1.000,"P-42-1",            62,          200.,          120.,            0.,NA,NA,"",   7.31824E+06,   7.73871E+06,   7.73871E+06
C:/temp/Job-42.odb,Step-1,Increment      1: Step Time =    1.000,"P-42-1",            63,          200.,          110.,            0.,NA,NA,"",   9.19549E+06,   9.62775E+06,   9.62775E+06
C:/temp/Job-42.odb,Step-1,Increment      1: Step Time =    1.000,"P-42-1",            64,          200.,          100.,            0.,NA,NA,"",   9.90532E+06,   10.3267E+06,   10.3267E+06
C:/temp/Job-42.odb,Step-1,Increment      1: Step Time =    1.000,"P-42-1",            65,          200.,           90.,            0.,NA,NA,"",   9.11599E+06,   9.53665E+06,   9.53665E+06
C:/temp/Job-42.odb,Step-1,Increment      1: Step Time =    1.000,"P-42-1",            66,          200.,           80.,            0.,NA,NA,"",   7.15163E+06,   7.57125E+06,   7.57125E+06
C:/temp/Job-42.odb,Step-1,Increment      1: Step Time =    1.000,"P-42-1",            67,          200.,           70.,            0.,NA,NA,"",   4.74284E+06,   5.13634E+06,   5.13634E+06
C:/temp/Job-42.odb,Step-1,Increment      1: Step Time =    1.000,"P-42-1",            68,          200.,           60.,            0.,NA,NA,"",   2.50533E+06,   2.82272E+06,   2.82272E+06
C:/temp/Job-42.odb,Step-1,Increment      1: Step Time =    1.000,"P-42-1",            69,          200.,           50.,            0.,NA,NA,"",   1.19676E+06,   1.37114E+06,   1.37114E+06
C:/temp/Job-42.odb,Step-1,Increment      1: Step Time =    1.000,"P-42-1",            70,          200.,           40.,            0.,NA,NA,"",   1.20872E+06,    1.0574E+06,    1.0574E+06
C:/temp/Job-42.odb,Step-1,Increment      1: Step Time =    1.000,"P-42-1",            71,          200.,           30.,            0.,NA,NA,"",   1.43662E+06,   1.03230E+06,   1.03230E+06
C:/temp/Job-42.odb,Step-1,Increment      1: Step Time =    1.000,"P-42-1",            72,          200.,           20.,            0.,NA,NA,"",   1.33334E+06,   1.02223E+06,   1.02223E+06
C:/temp/Job-42.odb,Step-1,Increment      1: Step Time =    1.000,"P-42-1",            73,          200.,           10.,            0.,NA,NA,"",   1.08834E+06,   988.514E+03,   988.514E+03
C:/temp/Job-42.odb,Step-1,Increment      1: Step Time =    1.000,"P-42-1",            74,          200.,          200.,            0.,NA,NA,"",   991.487E+03,   981.886E+03,   981.886E+03
C:/temp/Job-42.odb,Step-1,Increment      1: Step Time =    1.000,"P-42-1",            75,           10.,          200.,            0.,NA,NA,"",   6.64588E+06,   6.64058E+06,   6.64058E+06
C:/temp/Job-42.odb,Step-1,Increment      1: Step Time =    1.000,"P-42-1",            76,           20.,          200.,            0.,NA,NA,"",   6.97057E+06,   6.96957E+06,   6.96957E+06
C:/temp/Job-42.odb,Step-1,Increment      1: Step Time =    1.000,"P-42-1",            77,           30.,          200.,            0.,NA,NA,"",   7.45844E+06,   7.44730E+06,   7.44730E+06
C:/temp/Job-42.odb,Step-1,Increment      1: Step Time =    1.000,"P-42-1",            78,           40.,          200.,            0.,NA,NA,"",   7.82676E+06,   7.82498E+06,   7.82498E+06
C:/temp/Job-42.odb,Step-1,Increment      1: Step Time =    1.000,"P-42-1",            79,           50.,          200.,            0.,NA,NA,"",   7.98818E+06,   7.97350E+06,   7.97350E+06
C:/temp/Job-42.odb,Step-1,Increment      1: Step Time =    1.000,"P-42-1",            80,           60.,          200.,            0.,NA,NA,"",   7.60266E+06,   7.57575E+06,   7.57575E+06
C:/temp/Job-42.odb,Step-1,Increment      1: Step Time =    1.000,"P-42-1",            81,           70.,          200.,            0.,NA,NA,"",   6.40705E+06,   6.36822E+06,   6.36822E+06
C:/temp/Job-42.odb,Step-1,Increment      1: Step Time =    1.000,"P-42-1",            82,           80.,          200.,            0.,NA,NA,"",   4.32492E+06,   4.25678E+06,   4.25678E+06
C:/temp/Job-42.odb,Step-1,Increment      1: Step Time =    1.000,"P-42-1",            83,           90.,          200.,            0.,NA,NA,"",   1.90355E+06,   1.70180E+06,   1.70180E+06
C:/temp/Job-42.odb,Step-1,Increment      1: Step Time =    1.000,"P-42-1",            84,          100.,          200.,            0.,NA,NA,"",   1.76376E+06,  -1.59394E+06,  -1.59394E+06
C:/temp/Job-42.odb,Step-1,Increment      1: Step Time =    1.000,"P-42-1",            85,          110.,          200.,            0.,NA,NA,"",   3.13082E+06,  -3.10031E+06,  -3.10031E+06
C:/temp/Job-42.odb,Step-1,Increment      1: Step Time =    1.000,"P-42-1",            86,          120.,          200.,            0.,NA,NA,"",   3.91594E+06,  -3.87667E+06,  -3.87667E+06
C:/temp/Job-42.odb,Step-1,Increment      1: Step Time =    1.000,"P-42-1",            87,          130.,          200.,            0.,NA,NA,"",   3.94012E+06,  -3.91797E+06,  -3.91797E+06
C:/temp/Job-42.odb,Step-1,Increment      1: Step Time =    1.000,"P-42-1",            88,          140.,          200.,            0.,NA,NA,"",   3.10798E+06,  -3.09849E+06,  -3.09849E+06
C:/temp/Job-42.odb,Step-1,Increment      1: Step Time =    1.000,"P-42-1",            89,          150.,          200.,            0.,NA,NA,"",   2.10117E+06,  -2.08879E+06,  -2.08879E+06
C:/temp/Job-42.odb,Step-1,Increment      1: Step Time =    1.000,"P-42-1",            90,          160.,          200.,            0.,NA,NA,"",   1.11658E+06,  -1.10124E+06,  -1.10124E+06
C:/temp/Job-42.odb,Step-1,Increment      1: Step Time =    1.000,"P-42-1",            91,          170.,          200.,            0.,NA,NA,"",   405.788E+03,  -344.842E+03,  -344.842E+03
C:/temp/Job-42.odb,Step-1,Increment      1: Step Time =    1.000,"P-42-1",            92,          180.,          200.,            0.,NA,NA,"",   463.239E+03,   430.211E+03,   430.211E+03
C:/temp/Job-42.odb,Step-1,Increment      1: Step Time =    1.000,"P-42-1",            93,          190.,          200.,            0.,NA,NA,"",   849.633E+03,   832.154E+03,   832.154E+03
C:/temp/Job-42.odb,Step-1,Increment      1: Step Time =    1.000,"P-42-1",            94,            0.,          200.,            0.,NA,NA,"",   6.90409E+06,   7.26773E+06,   7.26773E+06
C:/temp/Job-42.odb,Step-1,Increment      1: Step Time =    1.000,"P-42-1",            95,            0.,           10.,            0.,NA,NA,"",   4.65412E+06,   5.13281E+06,   5.13281E+06
C:/temp/Job-42.odb,Step-1,Increment      1: Step Time =    1.000,"P-42-1",            96,            0.,           20.,            0.,NA,NA,"",   2.90067E+06,   3.23675E+06,   3.23675E+06
C:/temp/Job-42.odb,Step-1,Increment      1: Step Time =    1.000,"P-42-1",            97,            0.,           30.,            0.,NA,NA,"",   1.38617E+06,   1.55540E+06,   1.55540E+06
C:/temp/Job-42.odb,Step-1,Increment      1: Step Time =    1.000,"P-42-1",            98,            0.,           40.,            0.,NA,NA,"",   298.190E+03,   294.339E+03,   294.339E+03
C:/temp/Job-42.odb,Step-1,Increment      1: Step Time =    1.000,"P-42-1",            99,            0.,           50.,            0.,NA,NA,"",   687.636E+03,  -706.980E+03,  -706.980E+03
C:/temp/Job-42.odb,Step-1,Increment      1: Step Time =    1.000,"P-42-1",           100,            0.,           60.,            0.,NA,NA,"",   1.06473E+06,  -1.09930E+06,  -1.09930E+06
C:/temp/Job-42.odb,Step-1,Increment      1: Step Time =    1.000,"P-42-1",           101,            0.,           70.,            0.,NA,NA,"",   1.08647E+06,  -1.10127E+06,  -1.10127E+06
C:/temp/Job-42.odb,Step-1,Increment      1: Step Time =    1.000,"P-42-1",           102,            0.,           80.,            0.,NA,NA,"",   845.871E+03,  -858.331E+03,  -858.331E+03
C:/temp/Job-42.odb,Step-1,Increment      1: Step Time =    1.000,"P-42-1",           103,            0.,           90.,            0.,NA,NA,"",   515.768E+03,  -555.062E+03,  -555.062E+03
C:/temp/Job-42.odb,Step-1,Increment      1: Step Time =    1.000,"P-42-1",           104,            0.,          100.,            0.,NA,NA,"",   302.883E+03,  -347.605E+03,  -347.605E+03
C:/temp/Job-42.odb,Step-1,Increment      1: Step Time =    1.000,"P-42-1",           105,            0.,          110.,            0.,NA,NA,"",   492.568E+03,  -535.811E+03,  -535.811E+03
C:/temp/Job-42.odb,Step-1,Increment      1: Step Time =    1.000,"P-42-1",           106,            0.,          120.,            0.,NA,NA,"",   835.457E+03,  -851.752E+03,  -851.752E+03
C:/temp/Job-42.odb,Step-1,Increment      1: Step Time =    1.000,"P-42-1",           107,            0.,          130.,            0.,NA,NA,"",   1.08058E+06,  -1.09763E+06,  -1.09763E+06
C:/temp/Job-42.odb,Step-1,Increment      1: Step Time =    1.000,"P-42-1",           108,            0.,          140.,            0.,NA,NA,"",   1.06544E+06,  -1.09329E+06,  -1.09329E+06
C:/temp/Job-42.odb,Step-1,Increment      1: Step Time =    1.000,"P-42-1",           109,            0.,          150.,            0.,NA,NA,"",   660.011E+03,  -676.477E+03,  -676.477E+03
C:/temp/Job-42.odb,Step-1,Increment      1: Step Time =    1.000,"P-42-1",           110,            0.,          160.,            0.,NA,NA,"",   315.311E+03,   314.132E+03,   314.132E+03
C:/temp/Job-42.odb,Step-1,Increment      1: Step Time =    1.000,"P-42-1",           111,            0.,          170.,            0.,NA,NA,"",   1.38733E+06,   1.55423E+06,   1.55423E+06
C:/temp/Job-42.odb,Step-1,Increment      1: Step Time =    1.000,"P-42-1",           112,            0.,          180.,            0.,NA,NA,"",   2.87978E+06,   3.21092E+06,   3.21092E+06
C:/temp/Job-42.odb,Step-1,Increment      1: Step Time =    1.000,"P-42-1",           113,            0.,          190.,            0.,NA,NA,"",   4.65909E+06,   5.13500E+06,   5.13500E+06
C:/temp/Job-42.odb,Step-1,Increment      1: Step Time =    1.000,"P-42-1",           114,       187.846,       20.8480,            0.,NA,NA,"",   1.36235E+06,   1.21513E+06,   1.21513E+06
C:/temp/Job-42.odb,Step-1,Increment      1: Step Time =    1.000,"P-42-1",           115,       20.1253,       65.5710,            0.,NA,NA,"",   1.63366E+06,  -1.64917E+06,  -1.64917E+06
C:/temp/Job-42.odb,Step-1,Increment      1: Step Time =    1.000,"P-42-1",           116,       190.061,       179.769,            0.,NA,NA,"",   1.31644E+06,   1.14347E+06,   1.14347E+06
C:/temp/Job-42.odb,Step-1,Increment      1: Step Time =    1.000,"P-42-1",           117,       179.588,       177.545,            0.,NA,NA,"",   1.64075E+06,   1.54159E+06,   1.54159E+06
C:/temp/Job-42.odb,Step-1,Increment      1: Step Time =    1.000,"P-42-1",           118,       167.815,       180.938,            0.,NA,NA,"",   1.97024E+06,   1.86726E+06,   1.86726E+06
C:/temp/Job-42.odb,Step-1,Increment      1: Step Time =    1.000,"P-42-1",           119,       153.213,       179.749,            0.,NA,NA,"",   3.03637E+06,   3.07921E+06,   3.07921E+06
C:/temp/Job-42.odb,Step-1,Increment      1: Step Time =    1.000,"P-42-1",           120,       144.973,       180.029,            0.,NA,NA,"",   4.02815E+06,   4.16844E+06,   4.16844E+06
C:/temp/Job-42.odb,Step-1,Increment      1: Step Time =    1.000,"P-42-1",           121,       137.055,       177.194,            0.,NA,NA,"",   6.99755E+06,   7.22902E+06,   7.22902E+06
C:/temp/Job-42.odb,Step-1,Increment      1: Step Time =    1.000,"P-42-1",           122,       126.457,       177.379,            0.,NA,NA,"",   10.8733E+06,   11.0420E+06,   11.0420E+06
C:/temp/Job-42.odb,Step-1,Increment      1: Step Time =    1.000,"P-42-1",           123,       73.4621,       179.985,            0.,NA,NA,"",   3.33874E+06,   2.83591E+06,   2.83591E+06
C:/temp/Job-42.odb,Step-1,Increment      1: Step Time =    1.000,"P-42-1",           124,       61.7776,       178.533,            0.,NA,NA,"",   2.82961E+06,   1.37037E+06,   1.37037E+06
C:/temp/Job-42.odb,Step-1,Increment      1: Step Time =    1.000,"P-42-1",           125,       51.7126,       181.105,            0.,NA,NA,"",   3.30168E+06,   2.83422E+06,   2.83422E+06
C:/temp/Job-42.odb,Step-1,Increment      1: Step Time =    1.000,"P-42-1",           126,       39.7487,       178.892,            0.,NA,NA,"",   2.80938E+06,   2.59935E+06,   2.59935E+06
C:/temp/Job-42.odb,Step-1,Increment      1: Step Time =    1.000,"P-42-1",           127,       29.3933,       176.655,            0.,NA,NA,"",   2.32565E+06,   2.26726E+06,   2.26726E+06
C:/temp/Job-42.odb,Step-1,Increment      1: Step Time =    1.000,"P-42-1",           128,       22.9519,       179.461,            0.,NA,NA,"",   3.05287E+06,   3.10622E+06,   3.10622E+06
C:/temp/Job-42.odb,Step-1,Increment      1: Step Time =    1.000,"P-42-1",           129,       11.5928,       179.430,            0.,NA,NA,"",   2.99325E+06,   3.19956E+06,   3.19956E+06
C:/temp/Job-42.odb,Step-1,Increment      1: Step Time =    1.000,"P-42-1",           130,       9.86740,       169.362,            0.,NA,NA,"",   1.14601E+06,   1.29842E+06,   1.29842E+06
C:/temp/Job-42.odb,Step-1,Increment      1: Step Time =    1.000,"P-42-1",           131,       30.8295,       168.708,            0.,NA,NA,"",   872.576E+03,   424.247E+03,   424.247E+03
C:/temp/Job-42.odb,Step-1,Increment      1: Step Time =    1.000,"P-42-1",           132,       41.5095,       167.688,            0.,NA,NA,"",   1.65338E+06,  -1.52589E+06,  -1.52589E+06
C:/temp/Job-42.odb,Step-1,Increment      1: Step Time =    1.000,"P-42-1",           133,       50.1328,       166.806,            0.,NA,NA,"",   3.04375E+06,  -3.03049E+06,  -3.03049E+06
C:/temp/Job-42.odb,Step-1,Increment      1: Step Time =    1.000,"P-42-1",           134,       149.328,       166.594,            0.,NA,NA,"",   6.18918E+06,   6.32152E+06,   6.32152E+06
C:/temp/Job-42.odb,Step-1,Increment      1: Step Time =    1.000,"P-42-1",           135,       156.463,       167.907,            0.,NA,NA,"",   4.29867E+06,   4.41783E+06,   4.41783E+06
C:/temp/Job-42.odb,Step-1,Increment      1: Step Time =    1.000,"P-42-1",           136,       172.205,       170.053,            0.,NA,NA,"",   2.46688E+06,   2.39638E+06,   2.39638E+06
C:/temp/Job-42.odb,Step-1,Increment      1: Step Time =    1.000,"P-42-1",           137,       178.980,       167.676,            0.,NA,NA,"",   2.13155E+06,   2.02647E+06,   2.02647E+06
C:/temp/Job-42.odb,Step-1,Increment      1: Step Time =    1.000,"P-42-1",           138,       186.423,       170.036,            0.,NA,NA,"",   1.55911E+06,   1.45241E+06,   1.45241E+06
C:/temp/Job-42.odb,Step-1,Increment      1: Step Time =    1.000,"P-42-1",           139,       161.511,       156.392,            0.,NA,NA,"",   3.90872E+06,   3.94620E+06,   3.94620E+06
C:/temp/Job-42.odb,Step-1,Increment      1: Step Time =    1.000,"P-42-1",           140,       169.976,       155.770,            0.,NA,NA,"",   3.10039E+06,   2.96891E+06,   2.96891E+06
C:/temp/Job-42.odb,Step-1,Increment      1: Step Time =    1.000,"P-42-1",           141,       176.584,       158.713,            0.,NA,NA,"",   2.75118E+06,   2.54451E+06,   2.54451E+06
C:/temp/Job-42.odb,Step-1,Increment      1: Step Time =    1.000,"P-42-1",           142,       189.227,       159.439,            0.,NA,NA,"",   1.83823E+06,   1.70020E+06,   1.70020E+06
C:/temp/Job-42.odb,Step-1,Increment      1: Step Time =    1.000,"P-42-1",           143,       168.229,       147.439,            0.,NA,NA,"",   2.66840E+06,   2.56291E+06,   2.56291E+06
C:/temp/Job-42.odb,Step-1,Increment      1: Step Time =    1.000,"P-42-1",           144,       179.688,       146.428,            0.,NA,NA,"",   3.05316E+06,   2.55091E+06,   2.55091E+06
C:/temp/Job-42.odb,Step-1,Increment      1: Step Time =    1.000,"P-42-1",           145,       190.594,       148.834,            0.,NA,NA,"",   2.28909E+06,   2.19677E+06,   2.19677E+06
C:/temp/Job-42.odb,Step-1,Increment      1: Step Time =    1.000,"P-42-1",           146,       178.913,       135.133,            0.,NA,NA,"",   2.72526E+06,   1.04329E+06,   1.04329E+06
C:/temp/Job-42.odb,Step-1,Increment      1: Step Time =    1.000,"P-42-1",           147,       189.883,       135.060,            0.,NA,NA,"",   3.30191E+06,   3.10334E+06,   3.10334E+06
C:/temp/Job-42.odb,Step-1,Increment      1: Step Time =    1.000,"P-42-1",           148,       178.601,       123.720,            0.,NA,NA,"",   3.59782E+06,  -3.38097E+06,  -3.38097E+06
C:/temp/Job-42.odb,Step-1,Increment      1: Step Time =    1.000,"P-42-1",           149,       191.836,       123.832,            0.,NA,NA,"",   4.19770E+06,   4.22751E+06,   4.22751E+06
C:/temp/Job-42.odb,Step-1,Increment      1: Step Time =    1.000,"P-42-1",           150,       190.263,       116.308,            0.,NA,NA,"",   3.67336E+06,   3.55680E+06,   3.55680E+06
C:/temp/Job-42.odb,Step-1,Increment      1: Step Time =    1.000,"P-42-1",           151,       190.504,       93.6570,            0.,NA,NA,"",   3.17016E+06,   3.23660E+06,   3.23660E+06
C:/temp/Job-42.odb,Step-1,Increment      1: Step Time =    1.000,"P-42-1",           152,       190.577,       104.198,            0.,NA,NA,"",   3.05058E+06,   3.17542E+06,   3.17542E+06
C:/temp/Job-42.odb,Step-1,Increment      1: Step Time =    1.000,"P-42-1",           153,       190.146,       83.6031,            0.,NA,NA,"",   3.59310E+06,   3.44016E+06,   3.44016E+06
C:/temp/Job-42.odb,Step-1,Increment      1: Step Time =    1.000,"P-42-1",           154,       178.734,       73.6205,            0.,NA,NA,"",   3.01649E+06,  -2.58529E+06,  -2.58529E+06
C:/temp/Job-42.odb,Step-1,Increment      1: Step Time =    1.000,"P-42-1",           155,       189.354,       73.9728,            0.,NA,NA,"",   3.56655E+06,    3.2787E+06,    3.2787E+06
C:/temp/Job-42.odb,Step-1,Increment      1: Step Time =    1.000,"P-42-1",           156,       167.311,       53.1654,            0.,NA,NA,"",   2.56866E+06,   2.49513E+06,   2.49513E+06
C:/temp/Job-42.odb,Step-1,Increment      1: Step Time =    1.000,"P-42-1",           157,       176.018,       51.1733,            0.,NA,NA,"",   3.10221E+06,   2.66872E+06,   2.66872E+06
C:/temp/Job-42.odb,Step-1,Increment      1: Step Time =    1.000,"P-42-1",           158,       190.535,       54.5416,            0.,NA,NA,"",   2.54575E+06,   2.44254E+06,   2.44254E+06
C:/temp/Job-42.odb,Step-1,Increment      1: Step Time =    1.000,"P-42-1",           159,       191.354,       65.2858,            0.,NA,NA,"",   3.35002E+06,   3.29184E+06,   3.29184E+06
C:/temp/Job-42.odb,Step-1,Increment      1: Step Time =    1.000,"P-42-1",           160,       182.551,       61.9477,            0.,NA,NA,"",   3.11423E+06,   2.43431E+06,   2.43431E+06
C:/temp/Job-42.odb,Step-1,Increment      1: Step Time =    1.000,"P-42-1",           161,       158.151,       39.9185,            0.,NA,NA,"",   4.50796E+06,   4.58036E+06,   4.58036E+06
C:/temp/Job-42.odb,Step-1,Increment      1: Step Time =    1.000,"P-42-1",           162,       169.613,       43.7138,            0.,NA,NA,"",   3.13255E+06,   3.01525E+06,   3.01525E+06
C:/temp/Job-42.odb,Step-1,Increment      1: Step Time =    1.000,"P-42-1",           163,       179.850,       42.4762,            0.,NA,NA,"",   2.66068E+06,   2.41533E+06,   2.41533E+06
C:/temp/Job-42.odb,Step-1,Increment      1: Step Time =    1.000,"P-42-1",           164,       191.398,       40.0857,            0.,NA,NA,"",   1.58353E+06,   1.48683E+06,   1.48683E+06
C:/temp/Job-42.odb,Step-1,Increment      1: Step Time =    1.000,"P-42-1",           165,       145.345,       31.1697,            0.,NA,NA,"",   7.08899E+06,   7.22399E+06,   7.22399E+06
C:/temp/Job-42.odb,Step-1,Increment      1: Step Time =    1.000,"P-42-1",           166,       157.079,       32.4585,            0.,NA,NA,"",   4.22921E+06,   4.33688E+06,   4.33688E+06
C:/temp/Job-42.odb,Step-1,Increment      1: Step Time =    1.000,"P-42-1",           167,       170.122,       29.8258,            0.,NA,NA,"",   2.64700E+06,   2.59693E+06,   2.59693E+06
C:/temp/Job-42.odb,Step-1,Increment      1: Step Time =    1.000,"P-42-1",           168,       178.020,       31.9056,            0.,NA,NA,"",   2.18724E+06,   2.09382E+06,   2.09382E+06
C:/temp/Job-42.odb,Step-1,Increment      1: Step Time =    1.000,"P-42-1",           169,       189.600,       31.0916,            0.,NA,NA,"",   1.46562E+06,   1.32442E+06,   1.32442E+06
C:/temp/Job-42.odb,Step-1,Increment      1: Step Time =    1.000,"P-42-1",           170,       9.97142,       20.2085,            0.,NA,NA,"",   3.03709E+06,   3.26818E+06,   3.26818E+06
C:/temp/Job-42.odb,Step-1,Increment      1: Step Time =    1.000,"P-42-1",           171,       18.1666,       23.4094,            0.,NA,NA,"",   2.43902E+06,   2.55921E+06,   2.55921E+06
C:/temp/Job-42.odb,Step-1,Increment      1: Step Time =    1.000,"P-42-1",           172,       32.0577,       19.5439,            0.,NA,NA,"",   3.21630E+06,   3.14731E+06,   3.14731E+06
C:/temp/Job-42.odb,Step-1,Increment      1: Step Time =    1.000,"P-42-1",           173,       40.8083,       21.7120,            0.,NA,NA,"",   2.68014E+06,   2.41216E+06,   2.41216E+06
C:/temp/Job-42.odb,Step-1,Increment      1: Step Time =    1.000,"P-42-1",           174,       52.4624,       19.5416,            0.,NA,NA,"",   3.14782E+06,   2.63740E+06,   2.63740E+06
C:/temp/Job-42.odb,Step-1,Increment      1: Step Time =    1.000,"P-42-1",           175,       62.4305,       22.4370,            0.,NA,NA,"",   2.60577E+06,   382.279E+03,   382.279E+03
C:/temp/Job-42.odb,Step-1,Increment      1: Step Time =    1.000,"P-42-1",           176,       73.3477,       22.0351,            0.,NA,NA,"",   2.56798E+06,   2.11778E+06,   2.11778E+06
C:/temp/Job-42.odb,Step-1,Increment      1: Step Time =    1.000,"P-42-1",           177,       125.291,       20.5592,            0.,NA,NA,"",   9.73533E+06,   9.96290E+06,   9.96290E+06
C:/temp/Job-42.odb,Step-1,Increment      1: Step Time =    1.000,"P-42-1",           178,       139.802,       22.6731,            0.,NA,NA,"",   6.04725E+06,   6.26267E+06,   6.26267E+06
C:/temp/Job-42.odb,Step-1,Increment      1: Step Time =    1.000,"P-42-1",           179,       146.774,       21.4143,            0.,NA,NA,"",   4.05899E+06,   4.21521E+06,   4.21521E+06
C:/temp/Job-42.odb,Step-1,Increment      1: Step Time =    1.000,"P-42-1",           180,       156.333,       21.4082,            0.,NA,NA,"",   2.94217E+06,   2.96460E+06,   2.96460E+06
C:/temp/Job-42.odb,Step-1,Increment      1: Step Time =    1.000,"P-42-1",           181,       166.056,       21.5800,            0.,NA,NA,"",   2.31166E+06,   2.24661E+06,   2.24661E+06
C:/temp/Job-42.odb,Step-1,Increment      1: Step Time =    1.000,"P-42-1",           182,       177.057,       20.0926,            0.,NA,NA,"",   1.62557E+06,   1.51604E+06,   1.51604E+06
C:/temp/Job-42.odb,Step-1,Increment      1: Step Time =    1.000,"P-42-1",           183,       50.3041,       33.3186,            0.,NA,NA,"",   3.14363E+06,  -3.12863E+06,  -3.12863E+06
C:/temp/Job-42.odb,Step-1,Increment      1: Step Time =    1.000,"P-42-1",           184,       42.6592,       32.3240,            0.,NA,NA,"",   1.81965E+06,  -1.69629E+06,  -1.69629E+06
C:/temp/Job-42.odb,Step-1,Increment      1: Step Time =    1.000,"P-42-1",           185,       28.0798,       31.5045,            0.,NA,NA,"",   756.251E+03,   421.686E+03,   421.686E+03
C:/temp/Job-42.odb,Step-1,Increment      1: Step Time =    1.000,"P-42-1",           186,       21.8463,       31.2193,            0.,NA,NA,"",   908.478E+03,   961.457E+03,   961.457E+03
C:/temp/Job-42.odb,Step-1,Increment      1: Step Time =    1.000,"P-42-1",           187,       13.4718,       29.9721,            0.,NA,NA,"",   1.22902E+06,   1.38237E+06,   1.38237E+06
C:/temp/Job-42.odb,Step-1,Increment      1: Step Time =    1.000,"P-42-1",           188,       38.5171,       44.2970,            0.,NA,NA,"",   3.43942E+06,  -3.49256E+06,  -3.49256E+06
C:/temp/Job-42.odb,Step-1,Increment      1: Step Time =    1.000,"P-42-1",           189,       31.0582,       45.4496,            0.,NA,NA,"",   2.20267E+06,  -2.23772E+06,  -2.23772E+06
C:/temp/Job-42.odb,Step-1,Increment      1: Step Time =    1.000,"P-42-1",           190,       21.6221,       43.0265,            0.,NA,NA,"",   1.08480E+06,  -968.779E+03,  -968.779E+03
C:/temp/Job-42.odb,Step-1,Increment      1: Step Time =    1.000,"P-42-1",           191,       11.0944,       40.5945,            0.,NA,NA,"",   528.250E+03,  -99.7500E+03,  -99.7500E+03
C:/temp/Job-42.odb,Step-1,Increment      1: Step Time =    1.000,"P-42-1",           192,       32.0046,       52.7730,            0.,NA,NA,"",   3.02412E+06,  -3.06458E+06,  -3.06458E+06
C:/temp/Job-42.odb,Step-1,Increment      1: Step Time =    1.000,"P-42-1",           193,       20.8905,       53.0587,            0.,NA,NA,"",   1.72702E+06,  -1.68404E+06,  -1.68404E+06
C:/temp/Job-42.odb,Step-1,Increment      1: Step Time =    1.000,"P-42-1",           194,       8.36220,       50.5205,            0.,NA,NA,"",   1.02499E+06,  -934.559E+03,  -934.559E+03
C:/temp/Job-42.odb,Step-1,Increment      1: Step Time =    1.000,"P-42-1",           195,       7.87527,       63.9018,            0.,NA,NA,"",   1.23208E+06,  -1.22927E+06,  -1.22927E+06
C:/temp/Job-42.odb,Step-1,Increment      1: Step Time =    1.000,"P-42-1",           196,       8.42301,       72.6213,            0.,NA,NA,"",   1.06310E+06,  -1.08988E+06,  -1.08988E+06
C:/temp/Job-42.odb,Step-1,Increment      1: Step Time =    1.000,"P-42-1",           197,       21.1593,       76.9643,            0.,NA,NA,"",   1.18306E+06,  -1.20864E+06,  -1.20864E+06
C:/temp/Job-42.odb,Step-1,Increment      1: Step Time =    1.000,"P-42-1",           198,       9.45210,       83.1566,            0.,NA,NA,"",   743.661E+03,  -793.827E+03,  -793.827E+03
C:/temp/Job-42.odb,Step-1,Increment      1: Step Time =    1.000,"P-42-1",           199,       9.09531,       93.5050,            0.,NA,NA,"",   481.279E+03,  -540.081E+03,  -540.081E+03
C:/temp/Job-42.odb,Step-1,Increment      1: Step Time =    1.000,"P-42-1",           200,       9.28923,       103.925,            0.,NA,NA,"",   455.688E+03,  -513.679E+03,  -513.679E+03
C:/temp/Job-42.odb,Step-1,Increment      1: Step Time =    1.000,"P-42-1",           201,       20.7872,       123.270,            0.,NA,NA,"",   1.18794E+06,  -1.21490E+06,  -1.21490E+06
C:/temp/Job-42.odb,Step-1,Increment      1: Step Time =    1.000,"P-42-1",           202,       10.8065,       125.660,            0.,NA,NA,"",   1.04780E+06,  -1.08247E+06,  -1.08247E+06
C:/temp/Job-42.odb,Step-1,Increment      1: Step Time =    1.000,"P-42-1",           203,       9.79539,       114.382,            0.,NA,NA,"",   672.848E+03,  -726.903E+03,  -726.903E+03
C:/temp/Job-42.odb,Step-1,Increment      1: Step Time =    1.000,"P-42-1",           204,       18.0635,       137.225,            0.,NA,NA,"",   1.60187E+06,  -1.60348E+06,  -1.60348E+06
C:/temp/Job-42.odb,Step-1,Increment      1: Step Time =    1.000,"P-42-1",           205,       9.63215,       135.316,            0.,NA,NA,"",   1.25178E+06,  -1.25228E+06,  -1.25228E+06
C:/temp/Job-42.odb,Step-1,Increment      1: Step Time =    1.000,"P-42-1",           206,       32.8296,       147.349,            0.,NA,NA,"",   3.16636E+06,  -3.20544E+06,  -3.20544E+06
C:/temp/Job-42.odb,Step-1,Increment      1: Step Time =    1.000,"P-42-1",           207,       20.4519,       145.555,            0.,NA,NA,"",   1.74463E+06,  -1.69696E+06,  -1.69696E+06
C:/temp/Job-42.odb,Step-1,Increment      1: Step Time =    1.000,"P-42-1",           208,       8.87701,       146.294,            0.,NA,NA,"",   1.16950E+06,  -1.09914E+06,  -1.09914E+06
C:/temp/Job-42.odb,Step-1,Increment      1: Step Time =    1.000,"P-42-1",           209,       38.8951,       155.344,            0.,NA,NA,"",   3.57703E+06,  -3.63458E+06,  -3.63458E+06
C:/temp/Job-42.odb,Step-1,Increment      1: Step Time =    1.000,"P-42-1",           210,       32.2805,       154.153,            0.,NA,NA,"",   2.43578E+06,  -2.47990E+06,  -2.47990E+06
C:/temp/Job-42.odb,Step-1,Increment      1: Step Time =    1.000,"P-42-1",           211,       22.4010,       155.471,            0.,NA,NA,"",   1.25853E+06,  -1.15673E+06,  -1.15673E+06
C:/temp/Job-42.odb,Step-1,Increment      1: Step Time =    1.000,"P-42-1",           212,       8.53970,       160.159,            0.,NA,NA,"",   400.713E+03,   337.999E+03,   337.999E+03
C:/temp/Job-42.odb,Step-1,Increment      1: Step Time =    1.000,"P-42-1",           213,       189.523,       10.0927,            0.,NA,NA,"",   1.06470E+06,   965.519E+03,   965.519E+03
C:/temp/Job-42.odb,Step-1,Increment      1: Step Time =    1.000,"P-42-1",           214,       179.316,       9.96413,            0.,NA,NA,"",   1.04949E+06,   926.345E+03,   926.345E+03
C:/temp/Job-42.odb,Step-1,Increment      1: Step Time =    1.000,"P-42-1",           215,       169.258,       13.3942,            0.,NA,NA,"",   1.45701E+06,   1.29466E+06,   1.29466E+06
C:/temp/Job-42.odb,Step-1,Increment      1: Step Time =    1.000,"P-42-1",           216,       160.810,       14.3695,            0.,NA,NA,"",   1.68038E+06,   1.49966E+06,   1.49966E+06
C:/temp/Job-42.odb,Step-1,Increment      1: Step Time =    1.000,"P-42-1",           217,       147.201,       10.1240,            0.,NA,NA,"",   1.47314E+06,   619.229E+03,   619.229E+03
C:/temp/Job-42.odb,Step-1,Increment      1: Step Time =    1.000,"P-42-1",           218,       134.034,       8.33730,            0.,NA,NA,"",   1.39827E+06,  -141.131E+03,  -141.131E+03
C:/temp/Job-42.odb,Step-1,Increment      1: Step Time =    1.000,"P-42-1",           219,       126.558,       10.0462,            0.,NA,NA,"",   1.80661E+06,   1.42510E+06,   1.42510E+06
C:/temp/Job-42.odb,Step-1,Increment      1: Step Time =    1.000,"P-42-1",           220,       115.557,       7.11352,            0.,NA,NA,"",   1.40125E+06,   137.134E+03,   137.134E+03
C:/temp/Job-42.odb,Step-1,Increment      1: Step Time =    1.000,"P-42-1",           221,       107.768,       9.15300,            0.,NA,NA,"",   3.41776E+06,   3.22776E+06,   3.22776E+06
C:/temp/Job-42.odb,Step-1,Increment      1: Step Time =    1.000,"P-42-1",           222,       97.5213,       11.3691,            0.,NA,NA,"",   5.57422E+06,   5.35374E+06,   5.35374E+06
C:/temp/Job-42.odb,Step-1,Increment      1: Step Time =    1.000,"P-42-1",           223,       84.7823,       8.38673,            0.,NA,NA,"",   4.89088E+06,   4.44078E+06,   4.44078E+06
C:/temp/Job-42.odb,Step-1,Increment      1: Step Time =    1.000,"P-42-1",           224,       75.3038,       9.34813,            0.,NA,NA,"",   5.35823E+06,   4.97190E+06,   4.97190E+06
C:/temp/Job-42.odb,Step-1,Increment      1: Step Time =    1.000,"P-42-1",           225,       65.6955,       9.38128,            0.,NA,NA,"",   5.58102E+06,   5.28506E+06,   5.28506E+06
C:/temp/Job-42.odb,Step-1,Increment      1: Step Time =    1.000,"P-42-1",           226,       55.7964,       9.74328,            0.,NA,NA,"",   5.66464E+06,   5.48429E+06,   5.48429E+06
C:/temp/Job-42.odb,Step-1,Increment      1: Step Time =    1.000,"P-42-1",           227,       40.4530,       12.8670,            0.,NA,NA,"",   4.85266E+06,   4.74717E+06,   4.74717E+06
C:/temp/Job-42.odb,Step-1,Increment      1: Step Time =    1.000,"P-42-1",           228,       29.8661,       10.3626,            0.,NA,NA,"",   5.46120E+06,   5.45201E+06,   5.45201E+06
C:/temp/Job-42.odb,Step-1,Increment      1: Step Time =    1.000,"P-42-1",           229,       19.9816,       9.96126,            0.,NA,NA,"",   5.44987E+06,   5.47496E+06,   5.47496E+06
C:/temp/Job-42.odb,Step-1,Increment      1: Step Time =    1.000,"P-42-1",           230,       10.0459,       10.0951,            0.,NA,NA,"",   5.28962E+06,   5.43846E+06,   5.43846E+06
C:/temp/Job-42.odb,Step-1,Increment      1: Step Time =    1.000,"P-42-1",           231,       190.032,       189.806,            0.,NA,NA,"",   1.07194E+06,   969.248E+03,   969.248E+03
C:/temp/Job-42.odb,Step-1,Increment      1: Step Time =    1.000,"P-42-1",           232,       179.446,       188.676,            0.,NA,NA,"",   1.14604E+06,   1.01715E+06,   1.01715E+06
C:/temp/Job-42.odb,Step-1,Increment      1: Step Time =    1.000,"P-42-1",           233,       169.481,       190.695,            0.,NA,NA,"",   1.03034E+06,   826.629E+03,   826.629E+03
C:/temp/Job-42.odb,Step-1,Increment      1: Step Time =    1.000,"P-42-1",           234,       160.364,       191.443,            0.,NA,NA,"",   1.05684E+06,   201.555E+03,   201.555E+03
C:/temp/Job-42.odb,Step-1,Increment      1: Step Time =    1.000,"P-42-1",           235,       146.076,       190.873,            0.,NA,NA,"",   1.33764E+06,   208.174E+03,   208.174E+03
C:/temp/Job-42.odb,Step-1,Increment      1: Step Time =    1.000,"P-42-1",           236,       131.377,       191.591,            0.,NA,NA,"",   1.30922E+06,   90.6524E+03,   90.6524E+03
C:/temp/Job-42.odb,Step-1,Increment      1: Step Time =    1.000,"P-42-1",           237,       122.754,       190.735,            0.,NA,NA,"",   1.74569E+06,   1.35148E+06,   1.35148E+06
C:/temp/Job-42.odb,Step-1,Increment      1: Step Time =    1.000,"P-42-1",           238,       112.371,       189.621,            0.,NA,NA,"",   3.71533E+06,   3.69635E+06,   3.69635E+06
C:/temp/Job-42.odb,Step-1,Increment      1: Step Time =    1.000,"P-42-1",           239,       105.390,       190.346,            0.,NA,NA,"",   3.92296E+06,   3.73079E+06,   3.73079E+06
C:/temp/Job-42.odb,Step-1,Increment      1: Step Time =    1.000,"P-42-1",           240,       94.7723,       190.737,            0.,NA,NA,"",   4.55595E+06,   4.20532E+06,   4.20532E+06
C:/temp/Job-42.odb,Step-1,Increment      1: Step Time =    1.000,"P-42-1",           241,       84.6745,       190.577,            0.,NA,NA,"",   5.14126E+06,   4.68364E+06,   4.68364E+06
C:/temp/Job-42.odb,Step-1,Increment      1: Step Time =    1.000,"P-42-1",           242,       75.0022,       190.669,            0.,NA,NA,"",   5.38643E+06,   5.00225E+06,   5.00225E+06
C:/temp/Job-42.odb,Step-1,Increment      1: Step Time =    1.000,"P-42-1",           243,       65.6484,       190.500,            0.,NA,NA,"",   5.48002E+06,   5.18464E+06,   5.18464E+06
C:/temp/Job-42.odb,Step-1,Increment      1: Step Time =    1.000,"P-42-1",           244,       50.8129,       190.784,            0.,NA,NA,"",   5.85029E+06,   5.72950E+06,   5.72950E+06
C:/temp/Job-42.odb,Step-1,Increment      1: Step Time =    1.000,"P-42-1",           245,       39.6926,       185.775,            0.,NA,NA,"",   4.56954E+06,   4.46597E+06,   4.46597E+06
C:/temp/Job-42.odb,Step-1,Increment      1: Step Time =    1.000,"P-42-1",           246,       31.5487,       186.429,            0.,NA,NA,"",   4.71899E+06,   4.67303E+06,   4.67303E+06
C:/temp/Job-42.odb,Step-1,Increment      1: Step Time =    1.000,"P-42-1",           247,       20.6114,       189.967,            0.,NA,NA,"",   5.43560E+06,   5.45856E+06,   5.45856E+06
C:/temp/Job-42.odb,Step-1,Increment      1: Step Time =    1.000,"P-42-1",           248,       10.2898,       189.986,            0.,NA,NA,"",   5.29707E+06,   5.44179E+06,   5.44179E+06
C:/temp/Job-42.odb,Step-1,Increment      1: Step Time =    1.000,"P-42-1",           249,       95.0025,       177.840,            0.,NA,NA,"",   9.49947E+06,   9.54671E+06,   9.54671E+06
C:/temp/Job-42.odb,Step-1,Increment      1: Step Time =    1.000,"P-42-1",           250,       90.0256,       177.360,            0.,NA,NA,"",   7.44774E+06,   7.47595E+06,   7.47595E+06
C:/temp/Job-42.odb,Step-1,Increment      1: Step Time =    1.000,"P-42-1",           251,       80.2149,       175.449,            0.,NA,NA,"",   3.47301E+06,   3.33860E+06,   3.33860E+06
C:/temp/Job-42.odb,Step-1,Increment      1: Step Time =    1.000,"P-42-1",           252,       75.4216,       174.026,            0.,NA,NA,"",   2.09692E+06,   1.77299E+06,   1.77299E+06
C:/temp/Job-42.odb,Step-1,Increment      1: Step Time =    1.000,"P-42-1",           253,       66.1571,       170.276,            0.,NA,NA,"",   2.17036E+06,  -2.07393E+06,  -2.07393E+06
C:/temp/Job-42.odb,Step-1,Increment      1: Step Time =    1.000,"P-42-1",           254,       61.7240,       167.963,            0.,NA,NA,"",   2.98882E+06,  -2.98073E+06,  -2.98073E+06
C:/temp/Job-42.odb,Step-1,Increment      1: Step Time =    1.000,"P-42-1",           255,       53.3474,       162.510,            0.,NA,NA,"",   4.05426E+06,  -4.09174E+06,  -4.09174E+06
C:/temp/Job-42.odb,Step-1,Increment      1: Step Time =    1.000,"P-42-1",           256,       49.4382,       159.393,            0.,NA,NA,"",   4.30309E+06,  -4.34929E+06,  -4.34929E+06
C:/temp/Job-42.odb,Step-1,Increment      1: Step Time =    1.000,"P-42-1",           257,       42.2583,       152.439,            0.,NA,NA,"",   4.27820E+06,  -4.32122E+06,  -4.32122E+06
C:/temp/Job-42.odb,Step-1,Increment      1: Step Time =    1.000,"P-42-1",           258,       39.0171,       148.632,            0.,NA,NA,"",   4.01173E+06,  -4.04910E+06,  -4.04910E+06
C:/temp/Job-42.odb,Step-1,Increment      1: Step Time =    1.000,"P-42-1",           259,       33.2989,       140.435,            0.,NA,NA,"",   3.08782E+06,  -3.11241E+06,  -3.11241E+06
C:/temp/Job-42.odb,Step-1,Increment      1: Step Time =    1.000,"P-42-1",           260,       30.8453,       136.078,            0.,NA,NA,"",   2.52525E+06,  -2.54488E+06,  -2.54488E+06
C:/temp/Job-42.odb,Step-1,Increment      1: Step Time =    1.000,"P-42-1",           261,       26.7995,       126.938,            0.,NA,NA,"",   1.56329E+06,  -1.59315E+06,  -1.59315E+06
C:/temp/Job-42.odb,Step-1,Increment      1: Step Time =    1.000,"P-42-1",           262,       25.2239,       122.193,            0.,NA,NA,"",   1.21841E+06,  -1.23847E+06,  -1.23847E+06
C:/temp/Job-42.odb,Step-1,Increment      1: Step Time =    1.000,"P-42-1",           263,       22.9998,       112.449,            0.,NA,NA,"",   821.240E+03,  -835.458E+03,  -835.458E+03
C:/temp/Job-42.odb,Step-1,Increment      1: Step Time =    1.000,"P-42-1",           264,       22.3604,       107.490,            0.,NA,NA,"",   725.089E+03,  -737.612E+03,  -737.612E+03
C:/temp/Job-42.odb,Step-1,Increment      1: Step Time =    1.000,"P-42-1",           265,       22.0401,       97.5000,            0.,NA,NA,"",   679.591E+03,  -691.622E+03,  -691.622E+03
C:/temp/Job-42.odb,Step-1,Increment      1: Step Time =    1.000,"P-42-1",           266,       22.3604,       92.5102,            0.,NA,NA,"",   723.732E+03,  -736.807E+03,  -736.807E+03
C:/temp/Job-42.odb,Step-1,Increment      1: Step Time =    1.000,"P-42-1",           267,       23.9556,       82.6434,            0.,NA,NA,"",   970.461E+03,  -985.955E+03,  -985.955E+03
C:/temp/Job-42.odb,Step-1,Increment      1: Step Time =    1.000,"P-42-1",           268,       25.2239,       77.8068,            0.,NA,NA,"",   1.21575E+06,  -1.23431E+06,  -1.23431E+06
C:/temp/Job-42.odb,Step-1,Increment      1: Step Time =    1.000,"P-42-1",           269,       28.6758,       68.4269,            0.,NA,NA,"",   1.98777E+06,  -2.01252E+06,  -2.01252E+06
C:/temp/Job-42.odb,Step-1,Increment      1: Step Time =    1.000,"P-42-1",           270,       30.8453,       63.9220,            0.,NA,NA,"",   2.47676E+06,  -2.50717E+06,  -2.50717E+06
C:/temp/Job-42.odb,Step-1,Increment      1: Step Time =    1.000,"P-42-1",           271,       36.0266,       55.3749,            0.,NA,NA,"",   3.50021E+06,  -3.53820E+06,  -3.53820E+06
C:/temp/Job-42.odb,Step-1,Increment      1: Step Time =    1.000,"P-42-1",           272,       39.0171,       51.3678,            0.,NA,NA,"",   3.92432E+06,  -3.96879E+06,  -3.96879E+06
C:/temp/Job-42.odb,Step-1,Increment      1: Step Time =    1.000,"P-42-1",           273,       45.7368,       43.9688,            0.,NA,NA,"",   4.36930E+06,  -4.41443E+06,  -4.41443E+06
C:/temp/Job-42.odb,Step-1,Increment      1: Step Time =    1.000,"P-42-1",           274,       49.4382,       40.6072,            0.,NA,NA,"",   4.31012E+06,  -4.36380E+06,  -4.36380E+06
C:/temp/Job-42.odb,Step-1,Increment      1: Step Time =    1.000,"P-42-1",           275,       57.4483,       34.6291,            0.,NA,NA,"",   3.71533E+06,  -3.73448E+06,  -3.73448E+06
C:/temp/Job-42.odb,Step-1,Increment      1: Step Time =    1.000,"P-42-1",           276,       61.7240,       32.0371,            0.,NA,NA,"",   3.06355E+06,  -3.07102E+06,  -3.07102E+06
C:/temp/Job-42.odb,Step-1,Increment      1: Step Time =    1.000,"P-42-1",           277,       70.7292,       27.7005,            0.,NA,NA,"",   1.41929E+06,  -483.114E+03,  -483.114E+03
C:/temp/Job-42.odb,Step-1,Increment      1: Step Time =    1.000,"P-42-1",           278,       75.4216,       25.9737,            0.,NA,NA,"",   1.68701E+06,   1.40213E+06,   1.40213E+06
C:/temp/Job-42.odb,Step-1,Increment      1: Step Time =    1.000,"P-42-1",           279,       85.0896,       23.4384,            0.,NA,NA,"",   4.98127E+06,   4.97809E+06,   4.97809E+06
C:/temp/Job-42.odb,Step-1,Increment      1: Step Time =    1.000,"P-42-1",           280,       90.0256,       22.6404,            0.,NA,NA,"",   7.36890E+06,   7.32786E+06,   7.32786E+06
C:/temp/Job-42.odb,Step-1,Increment      1: Step Time =    1.000,"P-42-1",           281,          100.,           22.,            0.,NA,NA,"",   11.5617E+06,   11.6730E+06,   11.6730E+06
C:/temp/Job-42.odb,Step-1,Increment      1: Step Time =    1.000,"P-42-1",           282,       104.997,       22.1603,            0.,NA,NA,"",   12.6288E+06,   12.7545E+06,   12.7545E+06
C:/temp/Job-42.odb,Step-1,Increment      1: Step Time =    1.000,"P-42-1",           283,       114.910,       23.4384,            0.,NA,NA,"",   13.4336E+06,   13.5587E+06,   13.5587E+06
C:/temp/Job-42.odb,Step-1,Increment      1: Step Time =    1.000,"P-42-1",           284,       124.578,       25.9737,            0.,NA,NA,"",   12.1683E+06,   12.3237E+06,   12.3237E+06
C:/temp/Job-42.odb,Step-1,Increment      1: Step Time =    1.000,"P-42-1",           285,       129.271,       27.7005,            0.,NA,NA,"",   10.8182E+06,   11.0049E+06,   11.0049E+06
C:/temp/Job-42.odb,Step-1,Increment      1: Step Time =    1.000,"P-42-1",           286,       138.276,       32.0371,            0.,NA,NA,"",    9.3274E+06,   9.42535E+06,   9.42535E+06
C:/temp/Job-42.odb,Step-1,Increment      1: Step Time =    1.000,"P-42-1",           287,       142.552,       34.6291,            0.,NA,NA,"",   8.12519E+06,   8.21658E+06,   8.21658E+06
C:/temp/Job-42.odb,Step-1,Increment      1: Step Time =    1.000,"P-42-1",           288,       150.562,       40.6072,            0.,NA,NA,"",   5.90350E+06,   5.97549E+06,   5.97549E+06
C:/temp/Job-42.odb,Step-1,Increment      1: Step Time =    1.000,"P-42-1",           289,       154.263,       43.9688,            0.,NA,NA,"",   4.94308E+06,   4.99957E+06,   4.99957E+06
C:/temp/Job-42.odb,Step-1,Increment      1: Step Time =    1.000,"P-42-1",           290,       160.983,       51.3678,            0.,NA,NA,"",   3.24313E+06,   3.28846E+06,   3.28846E+06
C:/temp/Job-42.odb,Step-1,Increment      1: Step Time =    1.000,"P-42-1",           291,       163.973,       55.3749,            0.,NA,NA,"",   2.41624E+06,   2.41134E+06,   2.41134E+06
C:/temp/Job-42.odb,Step-1,Increment      1: Step Time =    1.000,"P-42-1",           292,       169.155,       63.9220,            0.,NA,NA,"",   1.15871E+06,   109.754E+03,   109.754E+03
C:/temp/Job-42.odb,Step-1,Increment      1: Step Time =    1.000,"P-42-1",           293,       171.324,       68.4269,            0.,NA,NA,"",   1.83114E+06,  -1.52274E+06,  -1.52274E+06
C:/temp/Job-42.odb,Step-1,Increment      1: Step Time =    1.000,"P-42-1",           294,       174.776,       77.8068,            0.,NA,NA,"",   4.51741E+06,  -4.51094E+06,  -4.51094E+06
C:/temp/Job-42.odb,Step-1,Increment      1: Step Time =    1.000,"P-42-1",           295,       176.044,       82.6434,            0.,NA,NA,"",   5.97946E+06,  -6.00743E+06,  -6.00743E+06
C:/temp/Job-42.odb,Step-1,Increment      1: Step Time =    1.000,"P-42-1",           296,       177.640,       92.5102,            0.,NA,NA,"",   8.22626E+06,  -8.28949E+06,  -8.28949E+06
C:/temp/Job-42.odb,Step-1,Increment      1: Step Time =    1.000,"P-42-1",           297,       177.960,       97.5000,            0.,NA,NA,"",   8.72905E+06,  -8.79532E+06,  -8.79532E+06
C:/temp/Job-42.odb,Step-1,Increment      1: Step Time =    1.000,"P-42-1",           298,       177.640,       107.490,            0.,NA,NA,"",   8.09439E+06,  -8.15408E+06,  -8.15408E+06
C:/temp/Job-42.odb,Step-1,Increment      1: Step Time =    1.000,"P-42-1",           299,       177.000,       112.449,            0.,NA,NA,"",   7.05874E+06,  -7.11190E+06,  -7.11190E+06
C:/temp/Job-42.odb,Step-1,Increment      1: Step Time =    1.000,"P-42-1",           300,       174.776,       122.193,            0.,NA,NA,"",   4.26480E+06,  -4.26755E+06,  -4.26755E+06
C:/temp/Job-42.odb,Step-1,Increment      1: Step Time =    1.000,"P-42-1",           301,       173.201,       126.938,            0.,NA,NA,"",   2.76827E+06,  -2.73647E+06,  -2.73647E+06
C:/temp/Job-42.odb,Step-1,Increment      1: Step Time =    1.000,"P-42-1",           302,       169.155,       136.078,            0.,NA,NA,"",   1.09947E+06,   144.743E+03,   144.743E+03
C:/temp/Job-42.odb,Step-1,Increment      1: Step Time =    1.000,"P-42-1",           303,       166.701,       140.435,            0.,NA,NA,"",   1.63165E+06,   1.55473E+06,   1.55473E+06
C:/temp/Job-42.odb,Step-1,Increment      1: Step Time =    1.000,"P-42-1",           304,       160.983,       148.632,            0.,NA,NA,"",   3.35295E+06,   3.37756E+06,   3.37756E+06
C:/temp/Job-42.odb,Step-1,Increment      1: Step Time =    1.000,"P-42-1",           305,       157.742,       152.439,            0.,NA,NA,"",   4.17647E+06,   4.22411E+06,   4.22411E+06
C:/temp/Job-42.odb,Step-1,Increment      1: Step Time =    1.000,"P-42-1",           306,       150.562,       159.393,            0.,NA,NA,"",   5.96938E+06,   6.05253E+06,   6.05253E+06
C:/temp/Job-42.odb,Step-1,Increment      1: Step Time =    1.000,"P-42-1",           307,       146.653,       162.510,            0.,NA,NA,"",   7.02584E+06,   7.11998E+06,   7.11998E+06
C:/temp/Job-42.odb,Step-1,Increment      1: Step Time =    1.000,"P-42-1",           308,       138.276,       167.963,            0.,NA,NA,"",   9.38432E+06,   9.48574E+06,   9.48574E+06
C:/temp/Job-42.odb,Step-1,Increment      1: Step Time =    1.000,"P-42-1",           309,       133.843,       170.276,            0.,NA,NA,"",   10.6451E+06,   10.7435E+06,   10.7435E+06
C:/temp/Job-42.odb,Step-1,Increment      1: Step Time =    1.000,"P-42-1",           310,       124.578,       174.026,            0.,NA,NA,"",   12.6614E+06,   12.7612E+06,   12.7612E+06
C:/temp/Job-42.odb,Step-1,Increment      1: Step Time =    1.000,"P-42-1",           311,       119.785,       175.449,            0.,NA,NA,"",   13.0505E+06,   13.1888E+06,   13.1888E+06
C:/temp/Job-42.odb,Step-1,Increment      1: Step Time =    1.000,"P-42-1",           312,       109.974,       177.360,            0.,NA,NA,"",   12.9656E+06,   13.0740E+06,   13.0740E+06
C:/temp/Job-42.odb,Step-1,Increment      1: Step Time =    1.000,"P-42-1",           313,       104.997,       177.840,            0.,NA,NA,"",   12.4871E+06,   12.5515E+06,   12.5515E+06
C:/temp/Job-42.odb,Step-1,Increment      1: Step Time =    1.000,"P-42-1",           314,          195.,            0.,            0.,NA,NA,"",   956.570E+03,   943.734E+03,   943.734E+03
C:/temp/Job-42.odb,Step-1,Increment      1: Step Time =    1.000,"P-42-1",           315,          185.,            0.,            0.,NA,NA,"",   663.866E+03,   647.706E+03,   647.706E+03
C:/temp/Job-42.odb,Step-1,Increment      1: Step Time =    1.000,"P-42-1",           316,          175.,            0.,            0.,NA,NA,"",   320.685E+03,   54.1453E+03,   54.1453E+03
C:/temp/Job-42.odb,Step-1,Increment      1: Step Time =    1.000,"P-42-1",           317,          165.,            0.,            0.,NA,NA,"",   653.713E+03,  -643.176E+03,  -643.176E+03
C:/temp/Job-42.odb,Step-1,Increment      1: Step Time =    1.000,"P-42-1",           318,          155.,            0.,            0.,NA,NA,"",   1.59518E+06,  -1.56635E+06,  -1.56635E+06
C:/temp/Job-42.odb,Step-1,Increment      1: Step Time =    1.000,"P-42-1",           319,          145.,            0.,            0.,NA,NA,"",   2.70246E+06,  -2.68383E+06,  -2.68383E+06
C:/temp/Job-42.odb,Step-1,Increment      1: Step Time =    1.000,"P-42-1",           320,          135.,            0.,            0.,NA,NA,"",   3.65958E+06,  -3.65921E+06,  -3.65921E+06
C:/temp/Job-42.odb,Step-1,Increment      1: Step Time =    1.000,"P-42-1",           321,          125.,            0.,            0.,NA,NA,"",   4.34087E+06,  -4.31738E+06,  -4.31738E+06
C:/temp/Job-42.odb,Step-1,Increment      1: Step Time =    1.000,"P-42-1",           322,          115.,            0.,            0.,NA,NA,"",   4.15264E+06,  -4.11619E+06,  -4.11619E+06
C:/temp/Job-42.odb,Step-1,Increment      1: Step Time =    1.000,"P-42-1",           323,          105.,            0.,            0.,NA,NA,"",   2.77217E+06,  -2.65571E+06,  -2.65571E+06
C:/temp/Job-42.odb,Step-1,Increment      1: Step Time =    1.000,"P-42-1",           324,           95.,            0.,            0.,NA,NA,"",   1.54284E+06,   30.7308E+03,   30.7308E+03
C:/temp/Job-42.odb,Step-1,Increment      1: Step Time =    1.000,"P-42-1",           325,           85.,            0.,            0.,NA,NA,"",   3.07538E+06,   3.01295E+06,   3.01295E+06
C:/temp/Job-42.odb,Step-1,Increment      1: Step Time =    1.000,"P-42-1",           326,           75.,            0.,            0.,NA,NA,"",   5.42211E+06,   5.37891E+06,   5.37891E+06
C:/temp/Job-42.odb,Step-1,Increment      1: Step Time =    1.000,"P-42-1",           327,           65.,            0.,            0.,NA,NA,"",   7.08777E+06,   7.05771E+06,   7.05771E+06
C:/temp/Job-42.odb,Step-1,Increment      1: Step Time =    1.000,"P-42-1",           328,           55.,            0.,            0.,NA,NA,"",   7.82328E+06,   7.80267E+06,   7.80267E+06
C:/temp/Job-42.odb,Step-1,Increment      1: Step Time =    1.000,"P-42-1",           329,           45.,            0.,            0.,NA,NA,"",   7.88704E+06,   7.87270E+06,   7.87270E+06
C:/temp/Job-42.odb,Step-1,Increment      1: Step Time =    1.000,"P-42-1",           330,           35.,            0.,            0.,NA,NA,"",   7.57114E+06,   7.56902E+06,   7.56902E+06
C:/temp/Job-42.odb,Step-1,Increment      1: Step Time =    1.000,"P-42-1",           331,           25.,            0.,            0.,NA,NA,"",   7.12644E+06,   7.13043E+06,   7.13043E+06
C:/temp/Job-42.odb,Step-1,Increment      1: Step Time =    1.000,"P-42-1",           332,           15.,            0.,            0.,NA,NA,"",   6.73664E+06,   6.75044E+06,   6.75044E+06
C:/temp/Job-42.odb,Step-1,Increment      1: Step Time =    1.000,"P-42-1",           333,            5.,            0.,            0.,NA,NA,"",   6.78127E+06,   6.92863E+06,   6.92863E+06
C:/temp/Job-42.odb,Step-1,Increment      1: Step Time =    1.000,"P-42-1",           334,          200.,          195.,            0.,NA,NA,"",   1.01255E+06,   981.501E+03,   981.501E+03
C:/temp/Job-42.odb,Step-1,Increment      1: Step Time =    1.000,"P-42-1",           335,          200.,          185.,            0.,NA,NA,"",   1.21236E+06,   1.00758E+06,   1.00758E+06
C:/temp/Job-42.odb,Step-1,Increment      1: Step Time =    1.000,"P-42-1",           336,          200.,          175.,            0.,NA,NA,"",   1.42536E+06,   1.02351E+06,   1.02351E+06
C:/temp/Job-42.odb,Step-1,Increment      1: Step Time =    1.000,"P-42-1",           337,          200.,          165.,            0.,NA,NA,"",   1.36015E+06,   1.05483E+06,   1.05483E+06
C:/temp/Job-42.odb,Step-1,Increment      1: Step Time =    1.000,"P-42-1",           338,          200.,          155.,            0.,NA,NA,"",   1.06577E+06,   1.12777E+06,   1.12777E+06
C:/temp/Job-42.odb,Step-1,Increment      1: Step Time =    1.000,"P-42-1",           339,          200.,          145.,            0.,NA,NA,"",   1.68155E+06,   1.93016E+06,   1.93016E+06
C:/temp/Job-42.odb,Step-1,Increment      1: Step Time =    1.000,"P-42-1",           340,          200.,          135.,            0.,NA,NA,"",   3.67851E+06,   4.04417E+06,   4.04417E+06
C:/temp/Job-42.odb,Step-1,Increment      1: Step Time =    1.000,"P-42-1",           341,          200.,          125.,            0.,NA,NA,"",   6.02760E+06,   6.44801E+06,   6.44801E+06
C:/temp/Job-42.odb,Step-1,Increment      1: Step Time =    1.000,"P-42-1",           342,          200.,          115.,            0.,NA,NA,"",   8.41341E+06,   8.83962E+06,   8.83962E+06
C:/temp/Job-42.odb,Step-1,Increment      1: Step Time =    1.000,"P-42-1",           343,          200.,          105.,            0.,NA,NA,"",   9.72703E+06,   10.1461E+06,   10.1461E+06
C:/temp/Job-42.odb,Step-1,Increment      1: Step Time =    1.000,"P-42-1",           344,          200.,           95.,            0.,NA,NA,"",   9.70021E+06,   10.1189E+06,   10.1189E+06
C:/temp/Job-42.odb,Step-1,Increment      1: Step Time =    1.000,"P-42-1",           345,          200.,           85.,            0.,NA,NA,"",   8.22564E+06,   8.64878E+06,   8.64878E+06
C:/temp/Job-42.odb,Step-1,Increment      1: Step Time =    1.000,"P-42-1",           346,          200.,           75.,            0.,NA,NA,"",   5.98703E+06,   6.39344E+06,   6.39344E+06
C:/temp/Job-42.odb,Step-1,Increment      1: Step Time =    1.000,"P-42-1",           347,          200.,           65.,            0.,NA,NA,"",   3.52461E+06,   3.89271E+06,   3.89271E+06
C:/temp/Job-42.odb,Step-1,Increment      1: Step Time =    1.000,"P-42-1",           348,          200.,           55.,            0.,NA,NA,"",   1.70978E+06,   1.95942E+06,   1.95942E+06
C:/temp/Job-42.odb,Step-1,Increment      1: Step Time =    1.000,"P-42-1",           349,          200.,           45.,            0.,NA,NA,"",   1.07067E+06,   1.11973E+06,   1.11973E+06
C:/temp/Job-42.odb,Step-1,Increment      1: Step Time =    1.000,"P-42-1",           350,          200.,           35.,            0.,NA,NA,"",   1.36795E+06,   1.04044E+06,   1.04044E+06
C:/temp/Job-42.odb,Step-1,Increment      1: Step Time =    1.000,"P-42-1",           351,          200.,           25.,            0.,NA,NA,"",   1.41703E+06,   1.02876E+06,   1.02876E+06
C:/temp/Job-42.odb,Step-1,Increment      1: Step Time =    1.000,"P-42-1",           352,          200.,           15.,            0.,NA,NA,"",   1.21148E+06,   1.00783E+06,   1.00783E+06
C:/temp/Job-42.odb,Step-1,Increment      1: Step Time =    1.000,"P-42-1",           353,          200.,            5.,            0.,NA,NA,"",   1.01140E+06,   979.633E+03,   979.633E+03
C:/temp/Job-42.odb,Step-1,Increment      1: Step Time =    1.000,"P-42-1",           354,            5.,          200.,            0.,NA,NA,"",   6.77728E+06,   6.92559E+06,   6.92559E+06
C:/temp/Job-42.odb,Step-1,Increment      1: Step Time =    1.000,"P-42-1",           355,           15.,          200.,            0.,NA,NA,"",   6.76326E+06,   6.77759E+06,   6.77759E+06
C:/temp/Job-42.odb,Step-1,Increment      1: Step Time =    1.000,"P-42-1",           356,           25.,          200.,            0.,NA,NA,"",   7.20313E+06,   7.20567E+06,   7.20567E+06
C:/temp/Job-42.odb,Step-1,Increment      1: Step Time =    1.000,"P-42-1",           357,           35.,          200.,            0.,NA,NA,"",   7.65885E+06,   7.65758E+06,   7.65758E+06
C:/temp/Job-42.odb,Step-1,Increment      1: Step Time =    1.000,"P-42-1",           358,           45.,          200.,            0.,NA,NA,"",   7.96449E+06,   7.94826E+06,   7.94826E+06
C:/temp/Job-42.odb,Step-1,Increment      1: Step Time =    1.000,"P-42-1",           359,           55.,          200.,            0.,NA,NA,"",   7.87383E+06,   7.85311E+06,   7.85311E+06
C:/temp/Job-42.odb,Step-1,Increment      1: Step Time =    1.000,"P-42-1",           360,           65.,          200.,            0.,NA,NA,"",   7.13155E+06,   7.09651E+06,   7.09651E+06
C:/temp/Job-42.odb,Step-1,Increment      1: Step Time =    1.000,"P-42-1",           361,           75.,          200.,            0.,NA,NA,"",   5.45010E+06,   5.40507E+06,   5.40507E+06
C:/temp/Job-42.odb,Step-1,Increment      1: Step Time =    1.000,"P-42-1",           362,           85.,          200.,            0.,NA,NA,"",   3.06498E+06,   2.97678E+06,   2.97678E+06
C:/temp/Job-42.odb,Step-1,Increment      1: Step Time =    1.000,"P-42-1",           363,           95.,          200.,            0.,NA,NA,"",   1.37656E+06,  -10.1312E+03,  -10.1312E+03
C:/temp/Job-42.odb,Step-1,Increment      1: Step Time =    1.000,"P-42-1",           364,          105.,          200.,            0.,NA,NA,"",   2.53554E+06,  -2.45318E+06,  -2.45318E+06
C:/temp/Job-42.odb,Step-1,Increment      1: Step Time =    1.000,"P-42-1",           365,          115.,          200.,            0.,NA,NA,"",   3.55970E+06,  -3.54608E+06,  -3.54608E+06
C:/temp/Job-42.odb,Step-1,Increment      1: Step Time =    1.000,"P-42-1",           366,          125.,          200.,            0.,NA,NA,"",   4.07604E+06,  -4.04314E+06,  -4.04314E+06
C:/temp/Job-42.odb,Step-1,Increment      1: Step Time =    1.000,"P-42-1",           367,          135.,          200.,            0.,NA,NA,"",   3.57718E+06,  -3.56198E+06,  -3.56198E+06
C:/temp/Job-42.odb,Step-1,Increment      1: Step Time =    1.000,"P-42-1",           368,          145.,          200.,            0.,NA,NA,"",   2.61127E+06,  -2.60053E+06,  -2.60053E+06
C:/temp/Job-42.odb,Step-1,Increment      1: Step Time =    1.000,"P-42-1",           369,          155.,          200.,            0.,NA,NA,"",   1.58615E+06,  -1.57709E+06,  -1.57709E+06
C:/temp/Job-42.odb,Step-1,Increment      1: Step Time =    1.000,"P-42-1",           370,          165.,          200.,            0.,NA,NA,"",   706.258E+03,  -682.933E+03,  -682.933E+03
C:/temp/Job-42.odb,Step-1,Increment      1: Step Time =    1.000,"P-42-1",           371,          175.,          200.,            0.,NA,NA,"",   326.648E+03,   56.6426E+03,   56.6426E+03
C:/temp/Job-42.odb,Step-1,Increment      1: Step Time =    1.000,"P-42-1",           372,          185.,          200.,            0.,NA,NA,"",   671.290E+03,   650.755E+03,   650.755E+03
C:/temp/Job-42.odb,Step-1,Increment      1: Step Time =    1.000,"P-42-1",           373,          195.,          200.,            0.,NA,NA,"",   956.702E+03,   944.924E+03,   944.924E+03
C:/temp/Job-42.odb,Step-1,Increment      1: Step Time =    1.000,"P-42-1",           374,            0.,            5.,            0.,NA,NA,"",   6.00527E+06,   6.43749E+06,   6.43749E+06
C:/temp/Job-42.odb,Step-1,Increment      1: Step Time =    1.000,"P-42-1",           375,            0.,           15.,            0.,NA,NA,"",   3.74740E+06,   4.16189E+06,   4.16189E+06
C:/temp/Job-42.odb,Step-1,Increment      1: Step Time =    1.000,"P-42-1",           376,            0.,           25.,            0.,NA,NA,"",   2.12478E+06,   2.37651E+06,   2.37651E+06
C:/temp/Job-42.odb,Step-1,Increment      1: Step Time =    1.000,"P-42-1",           377,            0.,           35.,            0.,NA,NA,"",   728.341E+03,   821.418E+03,   821.418E+03
C:/temp/Job-42.odb,Step-1,Increment      1: Step Time =    1.000,"P-42-1",           378,            0.,           45.,            0.,NA,NA,"",   361.635E+03,  -216.466E+03,  -216.466E+03
C:/temp/Job-42.odb,Step-1,Increment      1: Step Time =    1.000,"P-42-1",           379,            0.,           55.,            0.,NA,NA,"",   929.162E+03,  -963.871E+03,  -963.871E+03
C:/temp/Job-42.odb,Step-1,Increment      1: Step Time =    1.000,"P-42-1",           380,            0.,           65.,            0.,NA,NA,"",   1.11567E+06,  -1.13994E+06,  -1.13994E+06
C:/temp/Job-42.odb,Step-1,Increment      1: Step Time =    1.000,"P-42-1",           381,            0.,           75.,            0.,NA,NA,"",   987.384E+03,  -996.441E+03,  -996.441E+03
C:/temp/Job-42.odb,Step-1,Increment      1: Step Time =    1.000,"P-42-1",           382,            0.,           85.,            0.,NA,NA,"",   682.302E+03,  -705.277E+03,  -705.277E+03
C:/temp/Job-42.odb,Step-1,Increment      1: Step Time =    1.000,"P-42-1",           383,            0.,           95.,            0.,NA,NA,"",   368.143E+03,  -416.337E+03,  -416.337E+03
C:/temp/Job-42.odb,Step-1,Increment      1: Step Time =    1.000,"P-42-1",           384,            0.,          105.,            0.,NA,NA,"",   356.298E+03,  -403.047E+03,  -403.047E+03
C:/temp/Job-42.odb,Step-1,Increment      1: Step Time =    1.000,"P-42-1",           385,            0.,          115.,            0.,NA,NA,"",   665.461E+03,  -693.251E+03,  -693.251E+03
C:/temp/Job-42.odb,Step-1,Increment      1: Step Time =    1.000,"P-42-1",           386,            0.,          125.,            0.,NA,NA,"",   974.937E+03,  -988.247E+03,  -988.247E+03
C:/temp/Job-42.odb,Step-1,Increment      1: Step Time =    1.000,"P-42-1",           387,            0.,          135.,            0.,NA,NA,"",   1.11804E+06,  -1.14011E+06,  -1.14011E+06
C:/temp/Job-42.odb,Step-1,Increment      1: Step Time =    1.000,"P-42-1",           388,            0.,          145.,            0.,NA,NA,"",   917.806E+03,  -946.042E+03,  -946.042E+03
C:/temp/Job-42.odb,Step-1,Increment      1: Step Time =    1.000,"P-42-1",           389,            0.,          155.,            0.,NA,NA,"",   331.980E+03,  -207.530E+03,  -207.530E+03
C:/temp/Job-42.odb,Step-1,Increment      1: Step Time =    1.000,"P-42-1",           390,            0.,          165.,            0.,NA,NA,"",   760.673E+03,   855.160E+03,   855.160E+03
C:/temp/Job-42.odb,Step-1,Increment      1: Step Time =    1.000,"P-42-1",           391,            0.,          175.,            0.,NA,NA,"",   2.11357E+06,   2.36290E+06,   2.36290E+06
C:/temp/Job-42.odb,Step-1,Increment      1: Step Time =    1.000,"P-42-1",           392,            0.,          185.,            0.,NA,NA,"",   3.73514E+06,   4.14204E+06,   4.14204E+06
C:/temp/Job-42.odb,Step-1,Increment      1: Step Time =    1.000,"P-42-1",           393,            0.,          195.,            0.,NA,NA,"",   6.00416E+06,   6.43933E+06,   6.43933E+06
C:/temp/Job-42.odb,Step-1,Increment      1: Step Time =    1.000,"P-42-1",           394,       125.993,       195.665,            0.,NA,NA,"",   2.63327E+06,  -2.55633E+06,  -2.55633E+06
C:/temp/Job-42.odb,Step-1,Increment      1: Step Time =    1.000,"P-42-1",           395,       195.898,       124.662,            0.,NA,NA,"",   5.38141E+06,   5.70817E+06,   5.70817E+06
C:/temp/Job-42.odb,Step-1,Increment      1: Step Time =    1.000,"P-42-1",           396,       195.236,       134.860,            0.,NA,NA,"",   3.49948E+06,   3.72917E+06,   3.72917E+06
C:/temp/Job-42.odb,Step-1,Increment      1: Step Time =    1.000,"P-42-1",           397,       135.706,       195.580,            0.,NA,NA,"",   2.43366E+06,  -2.35729E+06,  -2.35729E+06
C:/temp/Job-42.odb,Step-1,Increment      1: Step Time =    1.000,"P-42-1",           398,       115.496,       193.772,            0.,NA,NA,"",   2.49703E+06,  -391.129E+03,  -391.129E+03
C:/temp/Job-42.odb,Step-1,Increment      1: Step Time =    1.000,"P-42-1",           399,       104.962,       195.340,            0.,NA,NA,"",   2.40206E+06,  -323.008E+03,  -323.008E+03
C:/temp/Job-42.odb,Step-1,Increment      1: Step Time =    1.000,"P-42-1",           400,       195.177,       94.2994,            0.,NA,NA,"",   7.37184E+06,   7.70469E+06,   7.70469E+06
C:/temp/Job-42.odb,Step-1,Increment      1: Step Time =    1.000,"P-42-1",           401,       195.143,       104.612,            0.,NA,NA,"",   7.37156E+06,   7.70777E+06,   7.70777E+06
C:/temp/Job-42.odb,Step-1,Increment      1: Step Time =    1.000,"P-42-1",           402,       195.131,       84.2680,            0.,NA,NA,"",   6.46049E+06,    6.7613E+06,    6.7613E+06
C:/temp/Job-42.odb,Step-1,Increment      1: Step Time =    1.000,"P-42-1",           403,       195.125,       74.6794,            0.,NA,NA,"",   5.03032E+06,   5.29415E+06,   5.29415E+06
C:/temp/Job-42.odb,Step-1,Increment      1: Step Time =    1.000,"P-42-1",           404,       195.473,       65.0157,            0.,NA,NA,"",   3.41776E+06,   3.66086E+06,   3.66086E+06
C:/temp/Job-42.odb,Step-1,Increment      1: Step Time =    1.000,"P-42-1",           405,       195.203,       54.8887,            0.,NA,NA,"",   1.99959E+06,   2.14553E+06,   2.14553E+06
C:/temp/Job-42.odb,Step-1,Increment      1: Step Time =    1.000,"P-42-1",           406,       144.364,       4.15817,            0.,NA,NA,"",   1.97624E+06,  -1.87496E+06,  -1.87496E+06
C:/temp/Job-42.odb,Step-1,Increment      1: Step Time =    1.000,"P-42-1",           407,       106.040,       4.54593,            0.,NA,NA,"",   2.41586E+06,  -520.257E+03,  -520.257E+03
C:/temp/Job-42.odb,Step-1,Increment      1: Step Time =    1.000,"P-42-1",           408,       115.523,       3.87195,            0.,NA,NA,"",   2.61296E+06,  -2.47530E+06,  -2.47530E+06
C:/temp/Job-42.odb,Step-1,Increment      1: Step Time =    1.000,"P-42-1",           409,       94.9592,       6.26663,            0.,NA,NA,"",   3.25240E+06,   2.40913E+06,   2.40913E+06
C:/temp/Job-42.odb,Step-1,Increment      1: Step Time =    1.000,"P-42-1",           410,       84.7495,       4.21857,            0.,NA,NA,"",   3.67491E+06,   3.45601E+06,   3.45601E+06
C:/temp/Job-42.odb,Step-1,Increment      1: Step Time =    1.000,"P-42-1",           411,       4.80753,       25.0474,            0.,NA,NA,"",   2.11210E+06,   2.35502E+06,   2.35502E+06
C:/temp/Job-42.odb,Step-1,Increment      1: Step Time =    1.000,"P-42-1",           412,       9.75462,       35.0379,            0.,NA,NA,"",   627.328E+03,   719.788E+03,   719.788E+03
C:/temp/Job-42.odb,Step-1,Increment      1: Step Time =    1.000,"P-42-1",           413,       4.70630,       45.1792,            0.,NA,NA,"",   509.527E+03,  -363.538E+03,  -363.538E+03
C:/temp/Job-42.odb,Step-1,Increment      1: Step Time =    1.000,"P-42-1",           414,       5.09059,       194.955,            0.,NA,NA,"",   6.14989E+06,   6.39317E+06,   6.39317E+06
C:/temp/Job-42.odb,Step-1,Increment      1: Step Time =    1.000,"P-42-1",           415,       75.1175,       4.55478,            0.,NA,NA,"",   5.39067E+06,   5.23635E+06,   5.23635E+06
C:/temp/Job-42.odb,Step-1,Increment      1: Step Time =    1.000,"P-42-1",           416,       25.3086,       195.196,            0.,NA,NA,"",   6.66733E+06,   6.66685E+06,   6.66685E+06
C:/temp/Job-42.odb,Step-1,Increment      1: Step Time =    1.000,"P-42-1",           417,       15.2080,       194.982,            0.,NA,NA,"",   6.32757E+06,   6.34664E+06,   6.34664E+06
C:/temp/Job-42.odb,Step-1,Increment      1: Step Time =    1.000,"P-42-1",           418,       55.4282,       195.209,            0.,NA,NA,"",   7.08613E+06,   7.02590E+06,   7.02590E+06
C:/temp/Job-42.odb,Step-1,Increment      1: Step Time =    1.000,"P-42-1",           419,       75.0508,       195.376,            0.,NA,NA,"",   5.42820E+06,   5.26905E+06,   5.26905E+06
C:/temp/Job-42.odb,Step-1,Increment      1: Step Time =    1.000,"P-42-1",           420,       65.2423,       195.208,            0.,NA,NA,"",   6.51812E+06,   6.40616E+06,   6.40616E+06
C:/temp/Job-42.odb,Step-1,Increment      1: Step Time =    1.000,"P-42-1",           421,       5.02270,       5.03322,            0.,NA,NA,"",   6.15304E+06,   6.39589E+06,   6.39589E+06
C:/temp/Job-42.odb,Step-1,Increment      1: Step Time =    1.000,"P-42-1",           422,       5.01412,       15.0783,            0.,NA,NA,"",   3.86524E+06,   4.21445E+06,   4.21445E+06
C:/temp/Job-42.odb,Step-1,Increment      1: Step Time =    1.000,"P-42-1",           423,       15.0065,       5.03852,            0.,NA,NA,"",   6.31318E+06,   6.33489E+06,   6.33489E+06
C:/temp/Job-42.odb,Step-1,Increment      1: Step Time =    1.000,"P-42-1",           424,       25.0305,       5.09403,            0.,NA,NA,"",   6.58060E+06,   6.58371E+06,   6.58371E+06
C:/temp/Job-42.odb,Step-1,Increment      1: Step Time =    1.000,"P-42-1",           425,       35.2009,       5.66146,            0.,NA,NA,"",   6.75864E+06,   6.74089E+06,   6.74089E+06
C:/temp/Job-42.odb,Step-1,Increment      1: Step Time =    1.000,"P-42-1",           426,       45.2500,       5.59245,            0.,NA,NA,"",   6.97134E+06,   6.92552E+06,   6.92552E+06
C:/temp/Job-42.odb,Step-1,Increment      1: Step Time =    1.000,"P-42-1",           427,       55.3316,       4.92381,            0.,NA,NA,"",   7.05475E+06,   6.99007E+06,   6.99007E+06
C:/temp/Job-42.odb,Step-1,Increment      1: Step Time =    1.000,"P-42-1",           428,       65.2657,       4.66341,            0.,NA,NA,"",   6.54061E+06,   6.43546E+06,   6.43546E+06
C:/temp/Job-42.odb,Step-1,Increment      1: Step Time =    1.000,"P-42-1",           429,       125.273,       4.60985,            0.,NA,NA,"",   2.51000E+06,  -2.41902E+06,  -2.41902E+06
C:/temp/Job-42.odb,Step-1,Increment      1: Step Time =    1.000,"P-42-1",           430,       134.717,       4.11024,            0.,NA,NA,"",   2.64457E+06,  -2.59369E+06,  -2.59369E+06
C:/temp/Job-42.odb,Step-1,Increment      1: Step Time =    1.000,"P-42-1",           431,       154.031,       4.85851,            0.,NA,NA,"",   1.29479E+06,  -1.13277E+06,  -1.13277E+06
C:/temp/Job-42.odb,Step-1,Increment      1: Step Time =    1.000,"P-42-1",           432,       194.852,       5.08268,            0.,NA,NA,"",   987.549E+03,   950.446E+03,   950.446E+03
C:/temp/Job-42.odb,Step-1,Increment      1: Step Time =    1.000,"P-42-1",           433,       184.727,       5.00896,            0.,NA,NA,"",   797.577E+03,   748.084E+03,   748.084E+03
C:/temp/Job-42.odb,Step-1,Increment      1: Step Time =    1.000,"P-42-1",           434,       174.769,       4.73947,            0.,NA,NA,"",   566.648E+03,   362.892E+03,   362.892E+03
C:/temp/Job-42.odb,Step-1,Increment      1: Step Time =    1.000,"P-42-1",           435,       163.984,       8.78129,            0.,NA,NA,"",   1.05243E+06,   555.633E+03,   555.633E+03
C:/temp/Job-42.odb,Step-1,Increment      1: Step Time =    1.000,"P-42-1",           436,       194.455,       15.2710,            0.,NA,NA,"",   1.21134E+06,   1.03180E+06,   1.03180E+06
C:/temp/Job-42.odb,Step-1,Increment      1: Step Time =    1.000,"P-42-1",           437,       194.494,       25.4157,            0.,NA,NA,"",   1.37742E+06,   1.08995E+06,   1.08995E+06
C:/temp/Job-42.odb,Step-1,Increment      1: Step Time =    1.000,"P-42-1",           438,       195.363,       35.1216,            0.,NA,NA,"",   1.36853E+06,   1.13268E+06,   1.13268E+06
C:/temp/Job-42.odb,Step-1,Increment      1: Step Time =    1.000,"P-42-1",           439,       195.623,       44.8976,            0.,NA,NA,"",   1.31355E+06,   1.33058E+06,   1.33058E+06
C:/temp/Job-42.odb,Step-1,Increment      1: Step Time =    1.000,"P-42-1",           440,       195.410,       115.151,            0.,NA,NA,"",   6.69038E+06,   7.01110E+06,   7.01110E+06
C:/temp/Job-42.odb,Step-1,Increment      1: Step Time =    1.000,"P-42-1",           441,       195.815,       144.799,            0.,NA,NA,"",   1.95460E+06,   2.13239E+06,   2.13239E+06
C:/temp/Job-42.odb,Step-1,Increment      1: Step Time =    1.000,"P-42-1",           442,       194.984,       154.596,            0.,NA,NA,"",   1.38931E+06,   1.40431E+06,   1.40431E+06
C:/temp/Job-42.odb,Step-1,Increment      1: Step Time =    1.000,"P-42-1",           443,       145.488,       195.509,            0.,NA,NA,"",   1.89633E+06,  -1.79090E+06,  -1.79090E+06
C:/temp/Job-42.odb,Step-1,Increment      1: Step Time =    1.000,"P-42-1",           444,       190.437,       165.066,            0.,NA,NA,"",   1.53058E+06,   1.39407E+06,   1.39407E+06
C:/temp/Job-42.odb,Step-1,Increment      1: Step Time =    1.000,"P-42-1",           445,       155.351,       195.749,            0.,NA,NA,"",   1.28480E+06,  -1.17128E+06,  -1.17128E+06
C:/temp/Job-42.odb,Step-1,Increment      1: Step Time =    1.000,"P-42-1",           446,       195.195,       174.978,            0.,NA,NA,"",   1.37827E+06,   1.06833E+06,   1.06833E+06
C:/temp/Job-42.odb,Step-1,Increment      1: Step Time =    1.000,"P-42-1",           447,       165.056,       195.624,            0.,NA,NA,"",   747.064E+03,  -342.283E+03,  -342.283E+03
C:/temp/Job-42.odb,Step-1,Increment      1: Step Time =    1.000,"P-42-1",           448,       195.045,       184.893,            0.,NA,NA,"",   1.21106E+06,   1.02672E+06,   1.02672E+06
C:/temp/Job-42.odb,Step-1,Increment      1: Step Time =    1.000,"P-42-1",           449,       174.803,       194.962,            0.,NA,NA,"",   595.697E+03,   383.401E+03,   383.401E+03
C:/temp/Job-42.odb,Step-1,Increment      1: Step Time =    1.000,"P-42-1",           450,       194.978,       194.932,            0.,NA,NA,"",   987.496E+03,   951.184E+03,   951.184E+03
C:/temp/Job-42.odb,Step-1,Increment      1: Step Time =    1.000,"P-42-1",           451,       184.887,       194.715,            0.,NA,NA,"",   814.458E+03,   760.650E+03,   760.650E+03
C:/temp/Job-42.odb,Step-1,Increment      1: Step Time =    1.000,"P-42-1",           452,       94.8785,       195.329,            0.,NA,NA,"",   2.48423E+06,   1.57793E+06,   1.57793E+06
C:/temp/Job-42.odb,Step-1,Increment      1: Step Time =    1.000,"P-42-1",           453,       84.8423,       195.321,            0.,NA,NA,"",   3.87127E+06,   3.62243E+06,   3.62243E+06
C:/temp/Job-42.odb,Step-1,Increment      1: Step Time =    1.000,"P-42-1",           454,       45.5650,       195.417,            0.,NA,NA,"",   7.28174E+06,   7.24502E+06,   7.24502E+06
C:/temp/Job-42.odb,Step-1,Increment      1: Step Time =    1.000,"P-42-1",           455,       5.35659,       184.853,            0.,NA,NA,"",   3.86576E+06,   4.20769E+06,   4.20769E+06
C:/temp/Job-42.odb,Step-1,Increment      1: Step Time =    1.000,"P-42-1",           456,       5.21369,       174.747,            0.,NA,NA,"",   2.06564E+06,   2.29944E+06,   2.29944E+06
C:/temp/Job-42.odb,Step-1,Increment      1: Step Time =    1.000,"P-42-1",           457,       4.50697,       165.008,            0.,NA,NA,"",   694.393E+03,   778.507E+03,   778.507E+03
C:/temp/Job-42.odb,Step-1,Increment      1: Step Time =    1.000,"P-42-1",           458,       4.20994,       155.269,            0.,NA,NA,"",   436.568E+03,  -198.761E+03,  -198.761E+03
C:/temp/Job-42.odb,Step-1,Increment      1: Step Time =    1.000,"P-42-1",           459,       4.58840,       145.488,            0.,NA,NA,"",   1.01049E+06,  -998.692E+03,  -998.692E+03
C:/temp/Job-42.odb,Step-1,Increment      1: Step Time =    1.000,"P-42-1",           460,       4.96499,       135.287,            0.,NA,NA,"",   1.16398E+06,  -1.17528E+06,  -1.17528E+06
C:/temp/Job-42.odb,Step-1,Increment      1: Step Time =    1.000,"P-42-1",           461,       5.23610,       125.163,            0.,NA,NA,"",   983.346E+03,  -1.00660E+06,  -1.00660E+06
C:/temp/Job-42.odb,Step-1,Increment      1: Step Time =    1.000,"P-42-1",           462,       5.01558,       114.762,            0.,NA,NA,"",   656.023E+03,  -697.100E+03,  -697.100E+03
C:/temp/Job-42.odb,Step-1,Increment      1: Step Time =    1.000,"P-42-1",           463,       4.73604,       104.473,            0.,NA,NA,"",   376.949E+03,  -429.921E+03,  -429.921E+03
C:/temp/Job-42.odb,Step-1,Increment      1: Step Time =    1.000,"P-42-1",           464,       4.60714,       94.2549,            0.,NA,NA,"",   392.483E+03,  -446.769E+03,  -446.769E+03
C:/temp/Job-42.odb,Step-1,Increment      1: Step Time =    1.000,"P-42-1",           465,       4.63539,       84.0468,            0.,NA,NA,"",   695.249E+03,  -730.839E+03,  -730.839E+03
C:/temp/Job-42.odb,Step-1,Increment      1: Step Time =    1.000,"P-42-1",           466,       4.09785,       73.9999,            0.,NA,NA,"",   1.00092E+06,  -1.01811E+06,  -1.01811E+06
C:/temp/Job-42.odb,Step-1,Increment      1: Step Time =    1.000,"P-42-1",           467,       3.84835,       64.4264,            0.,NA,NA,"",   1.15099E+06,  -1.16572E+06,  -1.16572E+06
C:/temp/Job-42.odb,Step-1,Increment      1: Step Time =    1.000,"P-42-1",           468,       4.04256,       54.9215,            0.,NA,NA,"",   1.01196E+06,  -1.01331E+06,  -1.01331E+06
C:/temp/Job-42.odb,Step-1,Increment      1: Step Time =    1.000,"P-42-1",           469,       36.2226,       191.454,            0.,NA,NA,"",   5.95997E+06,   5.92136E+06,   5.92136E+06
C:/temp/Job-42.odb,Step-1,Increment      1: Step Time =    1.000,"P-42-1",           470,       189.781,       5.06350,            0.,NA,NA,"",   913.851E+03,   870.533E+03,   870.533E+03
C:/temp/Job-42.odb,Step-1,Increment      1: Step Time =    1.000,"P-42-1",           471,       179.723,       4.91983,            0.,NA,NA,"",   665.356E+03,   593.725E+03,   593.725E+03
C:/temp/Job-42.odb,Step-1,Increment      1: Step Time =    1.000,"P-42-1",           472,       169.448,       9.00894,            0.,NA,NA,"",   1.02301E+06,   812.182E+03,   812.182E+03
C:/temp/Job-42.odb,Step-1,Increment      1: Step Time =    1.000,"P-42-1",           473,       159.695,       5.38823,            0.,NA,NA,"",   978.862E+03,  -534.924E+03,  -534.924E+03
C:/temp/Job-42.odb,Step-1,Increment      1: Step Time =    1.000,"P-42-1",           474,       148.984,       4.68089,            0.,NA,NA,"",   1.63480E+06,  -1.49155E+06,  -1.49155E+06
C:/temp/Job-42.odb,Step-1,Increment      1: Step Time =    1.000,"P-42-1",           475,       139.534,       4.31477,            0.,NA,NA,"",   2.33038E+06,  -2.25137E+06,  -2.25137E+06
C:/temp/Job-42.odb,Step-1,Increment      1: Step Time =    1.000,"P-42-1",           476,       129.907,       3.97154,            0.,NA,NA,"",   2.72086E+06,  -2.65039E+06,  -2.65039E+06
C:/temp/Job-42.odb,Step-1,Increment      1: Step Time =    1.000,"P-42-1",           477,       120.228,       4.56491,            0.,NA,NA,"",   2.50411E+06,  -2.38554E+06,  -2.38554E+06
C:/temp/Job-42.odb,Step-1,Increment      1: Step Time =    1.000,"P-42-1",           478,       110.781,       4.01897,            0.,NA,NA,"",   2.50629E+06,  -1.75217E+06,  -1.75217E+06
C:/temp/Job-42.odb,Step-1,Increment      1: Step Time =    1.000,"P-42-1",           479,       100.961,       5.23015,            0.,NA,NA,"",   2.53346E+06,   573.524E+03,   573.524E+03
C:/temp/Job-42.odb,Step-1,Increment      1: Step Time =    1.000,"P-42-1",           480,       89.5727,       4.42304,            0.,NA,NA,"",   3.03499E+06,   2.68383E+06,   2.68383E+06
C:/temp/Job-42.odb,Step-1,Increment      1: Step Time =    1.000,"P-42-1",           481,       79.9807,       4.41106,            0.,NA,NA,"",    4.5832E+06,   4.41735E+06,   4.41735E+06
C:/temp/Job-42.odb,Step-1,Increment      1: Step Time =    1.000,"P-42-1",           482,       70.2035,       4.54683,            0.,NA,NA,"",   6.05762E+06,   5.91719E+06,   5.91719E+06
C:/temp/Job-42.odb,Step-1,Increment      1: Step Time =    1.000,"P-42-1",           483,       60.3134,       4.78465,            0.,NA,NA,"",   6.86404E+06,   6.78585E+06,   6.78585E+06
C:/temp/Job-42.odb,Step-1,Increment      1: Step Time =    1.000,"P-42-1",           484,       50.3280,       5.18456,            0.,NA,NA,"",   7.08457E+06,   7.03220E+06,   7.03220E+06
C:/temp/Job-42.odb,Step-1,Increment      1: Step Time =    1.000,"P-42-1",           485,       40.2244,       5.95921,            0.,NA,NA,"",   6.82922E+06,   6.79573E+06,   6.79573E+06
C:/temp/Job-42.odb,Step-1,Increment      1: Step Time =    1.000,"P-42-1",           486,       30.0823,       5.30736,            0.,NA,NA,"",   6.69307E+06,   6.68982E+06,   6.68982E+06
C:/temp/Job-42.odb,Step-1,Increment      1: Step Time =    1.000,"P-42-1",           487,       19.9956,       5.02920,            0.,NA,NA,"",   6.44900E+06,   6.45518E+06,   6.45518E+06
C:/temp/Job-42.odb,Step-1,Increment      1: Step Time =    1.000,"P-42-1",           488,       10.0200,       5.03946,            0.,NA,NA,"",   6.27265E+06,   6.31640E+06,   6.31640E+06
C:/temp/Job-42.odb,Step-1,Increment      1: Step Time =    1.000,"P-42-1",           489,       195.009,       189.916,            0.,NA,NA,"",   1.08504E+06,   984.159E+03,   984.159E+03
C:/temp/Job-42.odb,Step-1,Increment      1: Step Time =    1.000,"P-42-1",           490,       195.092,       179.924,            0.,NA,NA,"",   1.31371E+06,   1.05129E+06,   1.05129E+06
C:/temp/Job-42.odb,Step-1,Increment      1: Step Time =    1.000,"P-42-1",           491,       190.685,       170.053,            0.,NA,NA,"",   1.41318E+06,   1.25244E+06,   1.25244E+06
C:/temp/Job-42.odb,Step-1,Increment      1: Step Time =    1.000,"P-42-1",           492,       194.790,       159.670,            0.,NA,NA,"",   1.37327E+06,   1.26400E+06,   1.26400E+06
C:/temp/Job-42.odb,Step-1,Increment      1: Step Time =    1.000,"P-42-1",           493,       195.374,       149.662,            0.,NA,NA,"",   1.53736E+06,   1.64628E+06,   1.64628E+06
C:/temp/Job-42.odb,Step-1,Increment      1: Step Time =    1.000,"P-42-1",           494,       195.738,       139.954,            0.,NA,NA,"",   2.66361E+06,   2.88295E+06,   2.88295E+06
C:/temp/Job-42.odb,Step-1,Increment      1: Step Time =    1.000,"P-42-1",           495,       195.451,       129.664,            0.,NA,NA,"",   4.41582E+06,   4.67111E+06,   4.67111E+06
C:/temp/Job-42.odb,Step-1,Increment      1: Step Time =    1.000,"P-42-1",           496,       196.095,       119.835,            0.,NA,NA,"",   6.18996E+06,   6.52767E+06,   6.52767E+06
C:/temp/Job-42.odb,Step-1,Increment      1: Step Time =    1.000,"P-42-1",           497,       195.135,       109.914,            0.,NA,NA,"",   7.05424E+06,   7.38549E+06,   7.38549E+06
C:/temp/Job-42.odb,Step-1,Increment      1: Step Time =    1.000,"P-42-1",           498,       195.175,       99.4169,            0.,NA,NA,"",   7.49225E+06,   7.83600E+06,   7.83600E+06
C:/temp/Job-42.odb,Step-1,Increment      1: Step Time =    1.000,"P-42-1",           499,       195.163,       89.2475,            0.,NA,NA,"",   7.01388E+06,   7.33442E+06,   7.33442E+06
C:/temp/Job-42.odb,Step-1,Increment      1: Step Time =    1.000,"P-42-1",           500,       195.077,       79.3692,            0.,NA,NA,"",   5.77371E+06,   6.04752E+06,   6.04752E+06
C:/temp/Job-42.odb,Step-1,Increment      1: Step Time =    1.000,"P-42-1",           501,       195.468,       69.9839,            0.,NA,NA,"",   4.23791E+06,   4.51035E+06,   4.51035E+06
C:/temp/Job-42.odb,Step-1,Increment      1: Step Time =    1.000,"P-42-1",           502,       195.099,       60.0009,            0.,NA,NA,"",   2.66033E+06,   2.84783E+06,   2.84783E+06
C:/temp/Job-42.odb,Step-1,Increment      1: Step Time =    1.000,"P-42-1",           503,       195.424,       49.8367,            0.,NA,NA,"",   1.52009E+06,   1.62262E+06,   1.62262E+06
C:/temp/Job-42.odb,Step-1,Increment      1: Step Time =    1.000,"P-42-1",           504,       195.629,       39.9882,            0.,NA,NA,"",   1.31174E+06,   1.19403E+06,   1.19403E+06
C:/temp/Job-42.odb,Step-1,Increment      1: Step Time =    1.000,"P-42-1",           505,       194.905,       30.3078,            0.,NA,NA,"",   1.39421E+06,   1.10333E+06,   1.10333E+06
C:/temp/Job-42.odb,Step-1,Increment      1: Step Time =    1.000,"P-42-1",           506,       194.218,       20.4291,            0.,NA,NA,"",   1.31714E+06,   1.07131E+06,   1.07131E+06
C:/temp/Job-42.odb,Step-1,Increment      1: Step Time =    1.000,"P-42-1",           507,       194.689,       10.1364,            0.,NA,NA,"",   1.08245E+06,   981.355E+03,   981.355E+03
C:/temp/Job-42.odb,Step-1,Increment      1: Step Time =    1.000,"P-42-1",           508,       10.1402,       194.965,            0.,NA,NA,"",   6.27200E+06,   6.31380E+06,   6.31380E+06
C:/temp/Job-42.odb,Step-1,Increment      1: Step Time =    1.000,"P-42-1",           509,       20.2675,       195.022,            0.,NA,NA,"",   6.48198E+06,   6.48951E+06,   6.48951E+06
C:/temp/Job-42.odb,Step-1,Increment      1: Step Time =    1.000,"P-42-1",           510,       30.9132,       190.963,            0.,NA,NA,"",   5.79953E+06,   5.77870E+06,   5.77870E+06
C:/temp/Job-42.odb,Step-1,Increment      1: Step Time =    1.000,"P-42-1",           511,       40.2042,       194.936,            0.,NA,NA,"",   7.00179E+06,   6.97646E+06,   6.97646E+06
C:/temp/Job-42.odb,Step-1,Increment      1: Step Time =    1.000,"P-42-1",           512,       50.4649,       195.393,            0.,NA,NA,"",   7.26297E+06,   7.22070E+06,   7.22070E+06
C:/temp/Job-42.odb,Step-1,Increment      1: Step Time =    1.000,"P-42-1",           513,       60.3635,       195.020,            0.,NA,NA,"",   6.82955E+06,   6.74372E+06,   6.74372E+06
C:/temp/Job-42.odb,Step-1,Increment      1: Step Time =    1.000,"P-42-1",           514,       70.1515,       195.384,            0.,NA,NA,"",   6.05474E+06,   5.92496E+06,   5.92496E+06
C:/temp/Job-42.odb,Step-1,Increment      1: Step Time =    1.000,"P-42-1",           515,       79.9148,       195.343,            0.,NA,NA,"",   4.68989E+06,   4.48679E+06,   4.48679E+06
C:/temp/Job-42.odb,Step-1,Increment      1: Step Time =    1.000,"P-42-1",           516,       89.8382,       195.321,            0.,NA,NA,"",   3.04102E+06,   2.71855E+06,   2.71855E+06
C:/temp/Job-42.odb,Step-1,Increment      1: Step Time =    1.000,"P-42-1",           517,       99.9596,       195.309,            0.,NA,NA,"",   2.35319E+06,   474.136E+03,   474.136E+03
C:/temp/Job-42.odb,Step-1,Increment      1: Step Time =    1.000,"P-42-1",           518,       109.842,       195.352,            0.,NA,NA,"",   2.48867E+06,  -873.852E+03,  -873.852E+03
C:/temp/Job-42.odb,Step-1,Increment      1: Step Time =    1.000,"P-42-1",           519,       120.975,       195.080,            0.,NA,NA,"",   2.35396E+06,  -2.02966E+06,  -2.02966E+06
C:/temp/Job-42.odb,Step-1,Increment      1: Step Time =    1.000,"P-42-1",           520,       130.796,       195.741,            0.,NA,NA,"",   2.63153E+06,  -2.56233E+06,  -2.56233E+06
C:/temp/Job-42.odb,Step-1,Increment      1: Step Time =    1.000,"P-42-1",           521,       140.592,       195.467,            0.,NA,NA,"",   2.16882E+06,  -2.08170E+06,  -2.08170E+06
C:/temp/Job-42.odb,Step-1,Increment      1: Step Time =    1.000,"P-42-1",           522,       150.426,       195.646,            0.,NA,NA,"",   1.59745E+06,  -1.48735E+06,  -1.48735E+06
C:/temp/Job-42.odb,Step-1,Increment      1: Step Time =    1.000,"P-42-1",           523,       160.207,       195.750,            0.,NA,NA,"",   990.731E+03,  -854.156E+03,  -854.156E+03
C:/temp/Job-42.odb,Step-1,Increment      1: Step Time =    1.000,"P-42-1",           524,       169.893,       195.359,            0.,NA,NA,"",   600.862E+03,   114.538E+03,   114.538E+03
C:/temp/Job-42.odb,Step-1,Increment      1: Step Time =    1.000,"P-42-1",           525,       179.786,       194.606,            0.,NA,NA,"",   698.706E+03,   624.353E+03,   624.353E+03
C:/temp/Job-42.odb,Step-1,Increment      1: Step Time =    1.000,"P-42-1",           526,       189.966,       194.854,            0.,NA,NA,"",   916.044E+03,   871.263E+03,   871.263E+03
C:/temp/Job-42.odb,Step-1,Increment      1: Step Time =    1.000,"P-42-1",           527,       5.02903,       10.0539,            0.,NA,NA,"",   4.92689E+06,   5.28002E+06,   5.28002E+06
C:/temp/Job-42.odb,Step-1,Increment      1: Step Time =    1.000,"P-42-1",           528,       4.94133,       20.0514,            0.,NA,NA,"",   2.95917E+06,   3.26265E+06,   3.26265E+06
C:/temp/Job-42.odb,Step-1,Increment      1: Step Time =    1.000,"P-42-1",           529,       9.30732,       30.0584,            0.,NA,NA,"",   1.26907E+06,   1.43618E+06,   1.43618E+06
C:/temp/Job-42.odb,Step-1,Increment      1: Step Time =    1.000,"P-42-1",           530,       5.14763,       40.2335,            0.,NA,NA,"",   362.275E+03,   162.572E+03,   162.572E+03
C:/temp/Job-42.odb,Step-1,Increment      1: Step Time =    1.000,"P-42-1",           531,       4.24366,       50.1263,            0.,NA,NA,"",   802.372E+03,  -778.969E+03,  -778.969E+03
C:/temp/Job-42.odb,Step-1,Increment      1: Step Time =    1.000,"P-42-1",           532,       3.92662,       59.6446,            0.,NA,NA,"",   1.12264E+06,  -1.13348E+06,  -1.13348E+06
C:/temp/Job-42.odb,Step-1,Increment      1: Step Time =    1.000,"P-42-1",           533,       3.85971,       69.2257,            0.,NA,NA,"",   1.10519E+06,  -1.12030E+06,  -1.12030E+06
C:/temp/Job-42.odb,Step-1,Increment      1: Step Time =    1.000,"P-42-1",           534,       4.39703,       78.9066,            0.,NA,NA,"",    858.15E+03,  -882.505E+03,  -882.505E+03
C:/temp/Job-42.odb,Step-1,Increment      1: Step Time =    1.000,"P-42-1",           535,       4.55816,       89.1053,            0.,NA,NA,"",   526.315E+03,  -575.080E+03,  -575.080E+03
C:/temp/Job-42.odb,Step-1,Increment      1: Step Time =    1.000,"P-42-1",           536,       4.66758,       99.3599,            0.,NA,NA,"",   337.531E+03,  -388.596E+03,  -388.596E+03
C:/temp/Job-42.odb,Step-1,Increment      1: Step Time =    1.000,"P-42-1",           537,       4.85105,       109.601,            0.,NA,NA,"",   495.701E+03,  -547.656E+03,  -547.656E+03
C:/temp/Job-42.odb,Step-1,Increment      1: Step Time =    1.000,"P-42-1",           538,       5.20309,       119.973,            0.,NA,NA,"",   828.474E+03,  -858.866E+03,  -858.866E+03
C:/temp/Job-42.odb,Step-1,Increment      1: Step Time =    1.000,"P-42-1",           539,       4.92994,       130.147,            0.,NA,NA,"",   1.10133E+06,  -1.11929E+06,  -1.11929E+06
C:/temp/Job-42.odb,Step-1,Increment      1: Step Time =    1.000,"P-42-1",           540,       5.02883,       140.431,            0.,NA,NA,"",   1.14466E+06,   -1.1466E+06,   -1.1466E+06
C:/temp/Job-42.odb,Step-1,Increment      1: Step Time =    1.000,"P-42-1",           541,       4.32070,       150.411,            0.,NA,NA,"",   761.844E+03,  -727.177E+03,  -727.177E+03
C:/temp/Job-42.odb,Step-1,Increment      1: Step Time =    1.000,"P-42-1",           542,       4.27779,       160.147,            0.,NA,NA,"",   337.798E+03,   309.515E+03,   309.515E+03
C:/temp/Job-42.odb,Step-1,Increment      1: Step Time =    1.000,"P-42-1",           543,       4.85381,       169.848,            0.,NA,NA,"",   1.31368E+06,   1.48112E+06,   1.48112E+06
C:/temp/Job-42.odb,Step-1,Increment      1: Step Time =    1.000,"P-42-1",           544,       5.52203,       179.742,            0.,NA,NA,"",   2.92898E+06,   3.22127E+06,   3.22127E+06
C:/temp/Job-42.odb,Step-1,Increment      1: Step Time =    1.000,"P-42-1",           545,       5.19212,       189.935,            0.,NA,NA,"",   4.93625E+06,   5.28770E+06,   5.28770E+06
C:/temp/Job-42.odb,Step-1,Increment      1: Step Time =    1.000,"P-42-1",           546,       176.951,       128.587,            0.,NA,NA,"",   2.68886E+06,  -2.35687E+06,  -2.35687E+06
C:/temp/Job-42.odb,Step-1,Increment      1: Step Time =    1.000,"P-42-1",           547,       64.1689,       26.1542,            0.,NA,NA,"",   2.18534E+06,  -1.81381E+06,  -1.81381E+06
C:/temp/Job-42.odb,Step-1,Increment      1: Step Time =    1.000,"P-42-1",           548,       181.749,       108.322,            0.,NA,NA,"",   5.79041E+06,  -5.81338E+06,  -5.81338E+06
C:/temp/Job-42.odb,Step-1,Increment      1: Step Time =    1.000,"P-42-1",           549,       165.249,       152.157,            0.,NA,NA,"",   3.27428E+06,   3.24939E+06,   3.24939E+06
C:/temp/Job-42.odb,Step-1,Increment      1: Step Time =    1.000,"P-42-1",           550,       165.065,       48.9061,            0.,NA,NA,"",   3.17556E+06,   3.16107E+06,   3.16107E+06
C:/temp/Job-42.odb,Step-1,Increment      1: Step Time =    1.000,"P-42-1",           551,       134.025,       25.0458,            0.,NA,NA,"",   9.32504E+06,   9.52956E+06,   9.52956E+06
C:/temp/Job-42.odb,Step-1,Increment      1: Step Time =    1.000,"P-42-1",           552,       110.055,       18.5473,            0.,NA,NA,"",   10.9955E+06,   11.1624E+06,   11.1624E+06
C:/temp/Job-42.odb,Step-1,Increment      1: Step Time =    1.000,"P-42-1",           553,       118.701,       181.644,            0.,NA,NA,"",   9.35960E+06,   9.62048E+06,   9.62048E+06
C:/temp/Job-42.odb,Step-1,Increment      1: Step Time =    1.000,"P-42-1",           554,       96.2073,       19.4088,            0.,NA,NA,"",   9.40644E+06,   9.46372E+06,   9.46372E+06
C:/temp/Job-42.odb,Step-1,Increment      1: Step Time =    1.000,"P-42-1",           555,       115.097,       19.2640,            0.,NA,NA,"",   11.0590E+06,   11.2384E+06,   11.2384E+06
C:/temp/Job-42.odb,Step-1,Increment      1: Step Time =    1.000,"P-42-1",           556,       94.4906,       17.5294,            0.,NA,NA,"",   7.88025E+06,   7.83154E+06,   7.83154E+06
C:/temp/Job-42.odb,Step-1,Increment      1: Step Time =    1.000,"P-42-1",           557,       180.405,       82.7642,            0.,NA,NA,"",   4.59985E+06,  -4.50164E+06,  -4.50164E+06
C:/temp/Job-42.odb,Step-1,Increment      1: Step Time =    1.000,"P-42-1",           558,       140.159,       171.572,            0.,NA,NA,"",   8.24027E+06,   8.39102E+06,   8.39102E+06
C:/temp/Job-42.odb,Step-1,Increment      1: Step Time =    1.000,"P-42-1",           559,       181.983,       97.8975,            0.,NA,NA,"",   6.20367E+06,  -6.27305E+06,  -6.27305E+06
C:/temp/Job-42.odb,Step-1,Increment      1: Step Time =    1.000,"P-42-1",           560,       54.6783,       30.3497,            0.,NA,NA,"",   2.86633E+06,  -2.77559E+06,  -2.77559E+06
C:/temp/Job-42.odb,Step-1,Increment      1: Step Time =    1.000,"P-42-1",           561,       82.9442,       18.3914,            0.,NA,NA,"",   5.23110E+06,   5.00383E+06,   5.00383E+06
C:/temp/Job-42.odb,Step-1,Increment      1: Step Time =    1.000,"P-42-1",           562,       100.081,       18.7603,            0.,NA,NA,"",   10.0465E+06,   10.1693E+06,   10.1693E+06
C:/temp/Job-42.odb,Step-1,Increment      1: Step Time =    1.000,"P-42-1",           563,       181.700,       92.7580,            0.,NA,NA,"",   5.93362E+06,  -5.97811E+06,  -5.97811E+06
C:/temp/Job-42.odb,Step-1,Increment      1: Step Time =    1.000,"P-42-1",           564,       172.805,       60.6113,            0.,NA,NA,"",   1.89319E+06,   1.06766E+06,   1.06766E+06
C:/temp/Job-42.odb,Step-1,Increment      1: Step Time =    1.000,"P-42-1",           565,       175.760,       63.5998,            0.,NA,NA,"",   2.21411E+06,   475.203E+03,   475.203E+03
C:/temp/Job-42.odb,Step-1,Increment      1: Step Time =    1.000,"P-42-1",           566,       87.6550,       16.8819,            0.,NA,NA,"",   6.20702E+06,   6.01896E+06,   6.01896E+06
C:/temp/Job-42.odb,Step-1,Increment      1: Step Time =    1.000,"P-42-1",           567,       59.4231,       28.1078,            0.,NA,NA,"",   2.55409E+06,  -2.36904E+06,  -2.36904E+06
C:/temp/Job-42.odb,Step-1,Increment      1: Step Time =    1.000,"P-42-1",           568,       179.519,       78.0593,            0.,NA,NA,"",   3.76132E+06,  -3.53849E+06,  -3.53849E+06
C:/temp/Job-42.odb,Step-1,Increment      1: Step Time =    1.000,"P-42-1",           569,       172.966,       138.088,            0.,NA,NA,"",   1.72648E+06,   925.406E+03,   925.406E+03
C:/temp/Job-42.odb,Step-1,Increment      1: Step Time =    1.000,"P-42-1",           570,       108.696,       181.787,            0.,NA,NA,"",   10.7673E+06,   10.8880E+06,   10.8880E+06
C:/temp/Job-42.odb,Step-1,Increment      1: Step Time =    1.000,"P-42-1",           571,       135.485,       173.635,            0.,NA,NA,"",   9.37144E+06,   9.53112E+06,   9.53112E+06
C:/temp/Job-42.odb,Step-1,Increment      1: Step Time =    1.000,"P-42-1",           572,       112.201,       182.955,            0.,NA,NA,"",   9.34127E+06,   9.56455E+06,   9.56455E+06
C:/temp/Job-42.odb,Step-1,Increment      1: Step Time =    1.000,"P-42-1",           573,       182.015,       103.092,            0.,NA,NA,"",   6.14679E+06,  -6.20282E+06,  -6.20282E+06
C:/temp/Job-42.odb,Step-1,Increment      1: Step Time =    1.000,"P-42-1",           574,       137.056,       26.6254,            0.,NA,NA,"",   8.83677E+06,   9.00850E+06,   9.00850E+06
C:/temp/Job-42.odb,Step-1,Increment      1: Step Time =    1.000,"P-42-1",           575,       84.6345,       181.115,            0.,NA,NA,"",   5.51709E+06,   5.34529E+06,   5.34529E+06
C:/temp/Job-42.odb,Step-1,Increment      1: Step Time =    1.000,"P-42-1",           576,       181.100,       113.556,            0.,NA,NA,"",   5.21550E+06,  -5.17876E+06,  -5.17876E+06
C:/temp/Job-42.odb,Step-1,Increment      1: Step Time =    1.000,"P-42-1",           577,       181.162,       87.6962,            0.,NA,NA,"",   5.36432E+06,  -5.35218E+06,  -5.35218E+06
C:/temp/Job-42.odb,Step-1,Increment      1: Step Time =    1.000,"P-42-1",           578,       104.915,       18.4447,            0.,NA,NA,"",   10.6515E+06,   10.8053E+06,   10.8053E+06
C:/temp/Job-42.odb,Step-1,Increment      1: Step Time =    1.000,"P-42-1",           579,       163.121,       43.5219,            0.,NA,NA,"",   3.66956E+06,   3.69717E+06,   3.69717E+06
C:/temp/Job-42.odb,Step-1,Increment      1: Step Time =    1.000,"P-42-1",           580,       141.043,       28.7243,            0.,NA,NA,"",   8.04060E+06,   8.18837E+06,   8.18837E+06
C:/temp/Job-42.odb,Step-1,Increment      1: Step Time =    1.000,"P-42-1",           581,       63.9273,       174.438,            0.,NA,NA,"",   2.24968E+06,  -995.319E+03,  -995.319E+03
C:/temp/Job-42.odb,Step-1,Increment      1: Step Time =    1.000,"P-42-1",           582,       175.050,       133.354,            0.,NA,NA,"",   1.94839E+06,  -746.759E+03,  -746.759E+03
C:/temp/Job-42.odb,Step-1,Increment      1: Step Time =    1.000,"P-42-1",           583,       149.660,       33.8495,            0.,NA,NA,"",   6.15409E+06,   6.27876E+06,   6.27876E+06
C:/temp/Job-42.odb,Step-1,Increment      1: Step Time =    1.000,"P-42-1",           584,       94.7843,       181.875,            0.,NA,NA,"",   8.41208E+06,   8.41138E+06,   8.41138E+06
C:/temp/Job-42.odb,Step-1,Increment      1: Step Time =    1.000,"P-42-1",           585,       89.7332,       181.591,            0.,NA,NA,"",   6.95804E+06,   6.88983E+06,   6.88983E+06
C:/temp/Job-42.odb,Step-1,Increment      1: Step Time =    1.000,"P-42-1",           586,       45.8283,       163.378,            0.,NA,NA,"",   3.28647E+06,  -3.32804E+06,  -3.32804E+06
C:/temp/Job-42.odb,Step-1,Increment      1: Step Time =    1.000,"P-42-1",           587,       144.873,       169.445,            0.,NA,NA,"",   7.13027E+06,   7.27353E+06,   7.27353E+06
C:/temp/Job-42.odb,Step-1,Increment      1: Step Time =    1.000,"P-42-1",           588,       104.431,       181.739,            0.,NA,NA,"",   10.6331E+06,   10.7238E+06,   10.7238E+06
C:/temp/Job-42.odb,Step-1,Increment      1: Step Time =    1.000,"P-42-1",           589,       17.8475,       97.7468,            0.,NA,NA,"",   644.945E+03,  -668.856E+03,  -668.856E+03
C:/temp/Job-42.odb,Step-1,Increment      1: Step Time =    1.000,"P-42-1",           590,       153.512,       163.495,            0.,NA,NA,"",   5.36560E+06,   5.47589E+06,   5.47589E+06
C:/temp/Job-42.odb,Step-1,Increment      1: Step Time =    1.000,"P-42-1",           591,       26.5935,       62.0362,            0.,NA,NA,"",   2.26123E+06,  -2.28998E+06,  -2.28998E+06
C:/temp/Job-42.odb,Step-1,Increment      1: Step Time =    1.000,"P-42-1",           592,       23.5162,       134.271,            0.,NA,NA,"",   1.84214E+06,  -1.86783E+06,  -1.86783E+06
C:/temp/Job-42.odb,Step-1,Increment      1: Step Time =    1.000,"P-42-1",           593,       18.8056,       113.165,            0.,NA,NA,"",   797.059E+03,  -822.865E+03,  -822.865E+03
C:/temp/Job-42.odb,Step-1,Increment      1: Step Time =    1.000,"P-42-1",           594,       17.9899,       92.5010,            0.,NA,NA,"",   688.648E+03,  -714.194E+03,  -714.194E+03
C:/temp/Job-42.odb,Step-1,Increment      1: Step Time =    1.000,"P-42-1",           595,       22.1583,       128.339,            0.,NA,NA,"",   1.48955E+06,  -1.51939E+06,  -1.51939E+06
C:/temp/Job-42.odb,Step-1,Increment      1: Step Time =    1.000,"P-42-1",           596,       24.4480,       66.9254,            0.,NA,NA,"",   1.85927E+06,  -1.88408E+06,  -1.88408E+06
C:/temp/Job-42.odb,Step-1,Increment      1: Step Time =    1.000,"P-42-1",           597,       19.6495,       118.252,            0.,NA,NA,"",   958.795E+03,  -985.333E+03,  -985.333E+03
C:/temp/Job-42.odb,Step-1,Increment      1: Step Time =    1.000,"P-42-1",           598,       18.2492,       108.053,            0.,NA,NA,"",   697.530E+03,  -721.882E+03,  -721.882E+03
C:/temp/Job-42.odb,Step-1,Increment      1: Step Time =    1.000,"P-42-1",           599,       35.1139,       48.4271,            0.,NA,NA,"",   3.29484E+06,  -3.34744E+06,  -3.34744E+06
C:/temp/Job-42.odb,Step-1,Increment      1: Step Time =    1.000,"P-42-1",           600,       22.6420,       71.9209,            0.,NA,NA,"",   1.49168E+06,  -1.51572E+06,  -1.51572E+06
C:/temp/Job-42.odb,Step-1,Increment      1: Step Time =    1.000,"P-42-1",           601,       17.9385,       102.918,            0.,NA,NA,"",   649.367E+03,  -672.650E+03,  -672.650E+03
C:/temp/Job-42.odb,Step-1,Increment      1: Step Time =    1.000,"P-42-1",           602,       18.4965,       87.2439,            0.,NA,NA,"",   782.272E+03,  -808.381E+03,  -808.381E+03
C:/temp/Job-42.odb,Step-1,Increment      1: Step Time =    1.000,"P-42-1",           603,       27.0754,       138.913,            0.,NA,NA,"",   2.34209E+06,  -2.36364E+06,  -2.36364E+06
C:/temp/Job-42.odb,Step-1,Increment      1: Step Time =    1.000,"P-42-1",           604,       59.2374,       172.261,            0.,NA,NA,"",   2.51835E+06,  -2.26468E+06,  -2.26468E+06
C:/temp/Job-42.odb,Step-1,Increment      1: Step Time =    1.000,"P-42-1",           605,       35.7819,       151.349,            0.,NA,NA,"",   3.44495E+06,  -3.49486E+06,  -3.49486E+06
C:/temp/Job-42.odb,Step-1,Increment      1: Step Time =    1.000,"P-42-1",           606,       99.7494,       181.899,            0.,NA,NA,"",   9.66596E+06,   9.74266E+06,   9.74266E+06
C:/temp/Job-42.odb,Step-1,Increment      1: Step Time =    1.000,"P-42-1",           607,       54.5366,       169.906,            0.,NA,NA,"",   2.78967E+06,  -2.68206E+06,  -2.68206E+06
C:/temp/Job-42.odb,Step-1,Increment      1: Step Time =    1.000,"P-42-1",           608,       178.582,       69.7865,            0.,NA,NA,"",   2.58540E+06,  -962.424E+03,  -962.424E+03
C:/temp/Job-42.odb,Step-1,Increment      1: Step Time =    1.000,"P-42-1",           609,       19.7904,       82.1058,            0.,NA,NA,"",   942.420E+03,  -968.537E+03,  -968.537E+03
C:/temp/Job-42.odb,Step-1,Increment      1: Step Time =    1.000,"P-42-1",           610,       180.001,       118.702,            0.,NA,NA,"",   4.47804E+06,  -4.34909E+06,  -4.34909E+06
C:/temp/Job-42.odb,Step-1,Increment      1: Step Time =    1.000,"P-42-1",           611,       46.1299,       36.5861,            0.,NA,NA,"",   3.33590E+06,  -3.38281E+06,  -3.38281E+06
C:/temp/Job-42.odb,Step-1,Increment      1: Step Time =    1.000,"P-42-1",           612,       169.441,       47.8564,            0.,NA,NA,"",   3.07899E+06,   2.93020E+06,   2.93020E+06
C:/temp/Job-42.odb,Step-1,Increment      1: Step Time =    1.000,"P-42-1",           613,       29.4773,       150.222,            0.,NA,NA,"",   2.38484E+06,  -2.40868E+06,  -2.40868E+06
C:/temp/Job-42.odb,Step-1,Increment      1: Step Time =    1.000,"P-42-1",           614,       20.7822,       139.090,            0.,NA,NA,"",   1.77921E+06,  -1.77833E+06,  -1.77833E+06
C:/temp/Job-42.odb,Step-1,Increment      1: Step Time =    1.000,"P-42-1",           615,       22.1769,       60.2488,            0.,NA,NA,"",   1.89782E+06,  -1.90575E+06,  -1.90575E+06
C:/temp/Job-42.odb,Step-1,Increment      1: Step Time =    1.000,"P-42-1",           616,       176.875,       139.955,            0.,NA,NA,"",   2.68297E+06,   2.01297E+06,   2.01297E+06
C:/temp/Job-42.odb,Step-1,Increment      1: Step Time =    1.000,"P-42-1",           617,       130.157,       7.31482,            0.,NA,NA,"",   1.15755E+06,  -525.642E+03,  -525.642E+03
C:/temp/Job-42.odb,Step-1,Increment      1: Step Time =    1.000,"P-42-1",           618,       119.495,       9.87484,            0.,NA,NA,"",   2.30230E+06,   1.96432E+06,   1.96432E+06
C:/temp/Job-42.odb,Step-1,Increment      1: Step Time =    1.000,"P-42-1",           619,       112.098,       8.15080,            0.,NA,NA,"",   2.27109E+06,   1.60937E+06,   1.60937E+06
C:/temp/Job-42.odb,Step-1,Increment      1: Step Time =    1.000,"P-42-1",           620,       191.918,       140.364,            0.,NA,NA,"",   2.86602E+06,   2.84774E+06,   2.84774E+06
C:/temp/Job-42.odb,Step-1,Increment      1: Step Time =    1.000,"P-42-1",           621,       190.949,       128.913,            0.,NA,NA,"",   3.74126E+06,   3.62606E+06,   3.62606E+06
C:/temp/Job-42.odb,Step-1,Increment      1: Step Time =    1.000,"P-42-1",           622,       190.478,       109.820,            0.,NA,NA,"",   3.32195E+06,   3.34320E+06,   3.34320E+06
C:/temp/Job-42.odb,Step-1,Increment      1: Step Time =    1.000,"P-42-1",           623,       190.585,       98.8656,            0.,NA,NA,"",   2.98846E+06,   3.13268E+06,   3.13268E+06
C:/temp/Job-42.odb,Step-1,Increment      1: Step Time =    1.000,"P-42-1",           624,       70.2617,       190.840,            0.,NA,NA,"",   5.46552E+06,   5.13231E+06,   5.13231E+06
C:/temp/Job-42.odb,Step-1,Increment      1: Step Time =    1.000,"P-42-1",           625,       89.7038,       190.663,            0.,NA,NA,"",   4.90140E+06,   4.48144E+06,   4.48144E+06
C:/temp/Job-42.odb,Step-1,Increment      1: Step Time =    1.000,"P-42-1",           626,       99.9263,       190.685,            0.,NA,NA,"",   4.18118E+06,   3.90126E+06,   3.90126E+06
C:/temp/Job-42.odb,Step-1,Increment      1: Step Time =    1.000,"P-42-1",           627,       109.252,       191.915,            0.,NA,NA,"",   2.62171E+06,   2.27494E+06,   2.27494E+06
C:/temp/Job-42.odb,Step-1,Increment      1: Step Time =    1.000,"P-42-1",           628,       118.854,       188.674,            0.,NA,NA,"",   3.30330E+06,   3.47589E+06,   3.47589E+06
C:/temp/Job-42.odb,Step-1,Increment      1: Step Time =    1.000,"P-42-1",           629,       8.12385,       59.3498,            0.,NA,NA,"",   1.24413E+06,  -1.22103E+06,  -1.22103E+06
C:/temp/Job-42.odb,Step-1,Increment      1: Step Time =    1.000,"P-42-1",           630,       7.76631,       68.4140,            0.,NA,NA,"",   1.17387E+06,  -1.18622E+06,  -1.18622E+06
C:/temp/Job-42.odb,Step-1,Increment      1: Step Time =    1.000,"P-42-1",           631,       8.78103,       77.5654,            0.,NA,NA,"",   912.376E+03,  -951.806E+03,  -951.806E+03
C:/temp/Job-42.odb,Step-1,Increment      1: Step Time =    1.000,"P-42-1",           632,       8.84577,       88.4044,            0.,NA,NA,"",   578.886E+03,  -636.132E+03,  -636.132E+03
C:/temp/Job-42.odb,Step-1,Increment      1: Step Time =    1.000,"P-42-1",           633,       9.19147,       98.7297,            0.,NA,NA,"",   436.598E+03,  -493.700E+03,  -493.700E+03
C:/temp/Job-42.odb,Step-1,Increment      1: Step Time =    1.000,"P-42-1",           634,       9.49315,       109.137,            0.,NA,NA,"",   540.249E+03,  -598.466E+03,  -598.466E+03
C:/temp/Job-42.odb,Step-1,Increment      1: Step Time =    1.000,"P-42-1",           635,       10.2385,       119.790,            0.,NA,NA,"",   844.071E+03,  -890.531E+03,  -890.531E+03
C:/temp/Job-42.odb,Step-1,Increment      1: Step Time =    1.000,"P-42-1",           636,       9.39113,       130.434,            0.,NA,NA,"",   1.14437E+06,  -1.16563E+06,  -1.16563E+06
C:/temp/Job-42.odb,Step-1,Increment      1: Step Time =    1.000,"P-42-1",           637,       139.208,       9.27121,            0.,NA,NA,"",   1.47342E+06,   355.174E+03,   355.174E+03
C:/temp/Job-42.odb,Step-1,Increment      1: Step Time =    1.000,"P-42-1",           638,       102.719,       10.0579,            0.,NA,NA,"",   4.45950E+06,   4.27947E+06,   4.27947E+06
C:/temp/Job-42.odb,Step-1,Increment      1: Step Time =    1.000,"P-42-1",           639,       90.5342,       10.2909,            0.,NA,NA,"",   5.18618E+06,   4.77630E+06,   4.77630E+06
C:/temp/Job-42.odb,Step-1,Increment      1: Step Time =    1.000,"P-42-1",           640,       80.2277,       9.02217,            0.,NA,NA,"",   5.17362E+06,   4.76313E+06,   4.76313E+06
C:/temp/Job-42.odb,Step-1,Increment      1: Step Time =    1.000,"P-42-1",           641,       70.4920,       8.98668,            0.,NA,NA,"",   5.49405E+06,   5.14161E+06,   5.14161E+06
C:/temp/Job-42.odb,Step-1,Increment      1: Step Time =    1.000,"P-42-1",           642,       192.891,       120.001,            0.,NA,NA,"",   4.63960E+06,   4.79312E+06,   4.79312E+06
C:/temp/Job-42.odb,Step-1,Increment      1: Step Time =    1.000,"P-42-1",           643,       190.359,       88.5657,            0.,NA,NA,"",   3.42028E+06,   3.36948E+06,   3.36948E+06
C:/temp/Job-42.odb,Step-1,Increment      1: Step Time =    1.000,"P-42-1",           644,       191.172,       69.5748,            0.,NA,NA,"",   3.62183E+06,   3.56212E+06,   3.56212E+06
C:/temp/Job-42.odb,Step-1,Increment      1: Step Time =    1.000,"P-42-1",           645,       60.7036,       189.468,            0.,NA,NA,"",   5.35363E+06,   5.08114E+06,   5.08114E+06
C:/temp/Job-42.odb,Step-1,Increment      1: Step Time =    1.000,"P-42-1",           646,       79.7575,       190.568,            0.,NA,NA,"",   5.28638E+06,   4.84866E+06,   4.84866E+06
C:/temp/Job-42.odb,Step-1,Increment      1: Step Time =    1.000,"P-42-1",           647,       126.909,       191.649,            0.,NA,NA,"",   1.32837E+06,   265.403E+03,   265.403E+03
C:/temp/Job-42.odb,Step-1,Increment      1: Step Time =    1.000,"P-42-1",           648,       136.133,       191.067,            0.,NA,NA,"",   1.40624E+06,   211.396E+03,   211.396E+03
C:/temp/Job-42.odb,Step-1,Increment      1: Step Time =    1.000,"P-42-1",           649,       122.285,       179.232,            0.,NA,NA,"",   10.7862E+06,   10.9906E+06,   10.9906E+06
C:/temp/Job-42.odb,Step-1,Increment      1: Step Time =    1.000,"P-42-1",           650,       77.9464,       19.9392,            0.,NA,NA,"",   3.85339E+06,   3.54332E+06,   3.54332E+06
C:/temp/Job-42.odb,Step-1,Increment      1: Step Time =    1.000,"P-42-1",           651,       169.969,       57.0291,            0.,NA,NA,"",   2.02198E+06,   1.83731E+06,   1.83731E+06
C:/temp/Job-42.odb,Step-1,Increment      1: Step Time =    1.000,"P-42-1",           652,       129.955,       21.2238,            0.,NA,NA,"",   8.51924E+06,   8.76048E+06,   8.76048E+06
C:/temp/Job-42.odb,Step-1,Increment      1: Step Time =    1.000,"P-42-1",           653,       68.5215,       176.761,            0.,NA,NA,"",   2.29246E+06,   958.449E+03,   958.449E+03
C:/temp/Job-42.odb,Step-1,Increment      1: Step Time =    1.000,"P-42-1",           654,       29.9651,       143.183,            0.,NA,NA,"",   2.78695E+06,  -2.81392E+06,  -2.81392E+06
C:/temp/Job-42.odb,Step-1,Increment      1: Step Time =    1.000,"P-42-1",           655,       66.8202,       20.7562,            0.,NA,NA,"",   3.07931E+06,   1.64763E+06,   1.64763E+06
C:/temp/Job-42.odb,Step-1,Increment      1: Step Time =    1.000,"P-42-1",           656,       132.686,       179.056,            0.,NA,NA,"",   7.39995E+06,   7.64054E+06,   7.64054E+06
C:/temp/Job-42.odb,Step-1,Increment      1: Step Time =    1.000,"P-42-1",           657,       51.8176,       25.1259,            0.,NA,NA,"",   2.18374E+06,   247.074E+03,   247.074E+03
C:/temp/Job-42.odb,Step-1,Increment      1: Step Time =    1.000,"P-42-1",           658,       51.3377,       175.241,            0.,NA,NA,"",   2.22757E+06,   360.585E+03,   360.585E+03
C:/temp/Job-42.odb,Step-1,Increment      1: Step Time =    1.000,"P-42-1",           659,       148.042,       27.4283,            0.,NA,NA,"",   5.29790E+06,   5.47537E+06,   5.47537E+06
C:/temp/Job-42.odb,Step-1,Increment      1: Step Time =    1.000,"P-42-1",           660,       147.015,       174.426,            0.,NA,NA,"",   5.14561E+06,   5.32043E+06,   5.32043E+06
C:/temp/Job-42.odb,Step-1,Increment      1: Step Time =    1.000,"P-42-1",           661,       57.6160,       23.8027,            0.,NA,NA,"",   2.36693E+06,   124.003E+03,   124.003E+03
C:/temp/Job-42.odb,Step-1,Increment      1: Step Time =    1.000,"P-42-1",           662,       57.0843,       176.782,            0.,NA,NA,"",   2.46250E+06,   310.895E+03,   310.895E+03
C:/temp/Job-42.odb,Step-1,Increment      1: Step Time =    1.000,"P-42-1",           663,       143.851,       25.0163,            0.,NA,NA,"",   5.71663E+06,   5.90582E+06,   5.90582E+06
C:/temp/Job-42.odb,Step-1,Increment      1: Step Time =    1.000,"P-42-1",           664,       141.523,       175.330,            0.,NA,NA,"",   6.28411E+06,   6.48503E+06,   6.48503E+06
C:/temp/Job-42.odb,Step-1,Increment      1: Step Time =    1.000,"P-42-1",           665,       18.3285,       70.9939,            0.,NA,NA,"",   1.35414E+06,  -1.38202E+06,  -1.38202E+06
C:/temp/Job-42.odb,Step-1,Increment      1: Step Time =    1.000,"P-42-1",           666,       180.855,       130.354,            0.,NA,NA,"",   2.85012E+06,   43.4516E+03,   43.4516E+03
C:/temp/Job-42.odb,Step-1,Increment      1: Step Time =    1.000,"P-42-1",           667,       110.021,       13.9594,            0.,NA,NA,"",   6.54735E+06,   6.71164E+06,   6.71164E+06
C:/temp/Job-42.odb,Step-1,Increment      1: Step Time =    1.000,"P-42-1",           668,       115.531,       185.636,            0.,NA,NA,"",   6.36533E+06,   6.60546E+06,   6.60546E+06
C:/temp/Job-42.odb,Step-1,Increment      1: Step Time =    1.000,"P-42-1",           669,       186.002,       93.1414,            0.,NA,NA,"",   2.46892E+06,  -1.24199E+06,  -1.24199E+06
C:/temp/Job-42.odb,Step-1,Increment      1: Step Time =    1.000,"P-42-1",           670,       92.5317,       14.0774,            0.,NA,NA,"",   6.34102E+06,   6.11902E+06,   6.11902E+06
C:/temp/Job-42.odb,Step-1,Increment      1: Step Time =    1.000,"P-42-1",           671,       186.054,       109.160,            0.,NA,NA,"",   2.60867E+06,  -964.746E+03,  -964.746E+03
C:/temp/Job-42.odb,Step-1,Increment      1: Step Time =    1.000,"P-42-1",           672,       84.5689,       185.820,            0.,NA,NA,"",   5.64146E+06,   5.23088E+06,   5.23088E+06
C:/temp/Job-42.odb,Step-1,Increment      1: Step Time =    1.000,"P-42-1",           673,       115.074,       15.2933,            0.,NA,NA,"",   6.99747E+06,   7.23195E+06,   7.23195E+06
C:/temp/Job-42.odb,Step-1,Increment      1: Step Time =    1.000,"P-42-1",           674,       85.9102,       12.4407,            0.,NA,NA,"",   5.66733E+06,   5.23473E+06,   5.23473E+06
C:/temp/Job-42.odb,Step-1,Increment      1: Step Time =    1.000,"P-42-1",           675,       99.1943,       15.3984,            0.,NA,NA,"",   7.59127E+06,   7.60956E+06,   7.60956E+06
C:/temp/Job-42.odb,Step-1,Increment      1: Step Time =    1.000,"P-42-1",           676,       186.200,       98.3581,            0.,NA,NA,"",   2.28800E+06,  -1.41537E+06,  -1.41537E+06
C:/temp/Job-42.odb,Step-1,Increment      1: Step Time =    1.000,"P-42-1",           677,       178.967,       59.7587,            0.,NA,NA,"",   3.00003E+06,   2.30113E+06,   2.30113E+06
C:/temp/Job-42.odb,Step-1,Increment      1: Step Time =    1.000,"P-42-1",           678,       186.236,       103.679,            0.,NA,NA,"",   2.34389E+06,  -1.28550E+06,  -1.28550E+06
C:/temp/Job-42.odb,Step-1,Increment      1: Step Time =    1.000,"P-42-1",           679,       185.431,       114.792,            0.,NA,NA,"",   2.84530E+06,  -704.626E+03,  -704.626E+03
C:/temp/Job-42.odb,Step-1,Increment      1: Step Time =    1.000,"P-42-1",           680,       13.5569,       92.7608,            0.,NA,NA,"",   599.650E+03,  -647.271E+03,  -647.271E+03
C:/temp/Job-42.odb,Step-1,Increment      1: Step Time =    1.000,"P-42-1",           681,       13.6908,       103.404,            0.,NA,NA,"",   565.898E+03,  -611.890E+03,  -611.890E+03
C:/temp/Job-42.odb,Step-1,Increment      1: Step Time =    1.000,"P-42-1",           682,       109.429,       187.040,            0.,NA,NA,"",   5.86434E+06,   5.97951E+06,   5.97951E+06
C:/temp/Job-42.odb,Step-1,Increment      1: Step Time =    1.000,"P-42-1",           683,       89.6494,       186.063,            0.,NA,NA,"",   6.04632E+06,   5.76565E+06,   5.76565E+06
C:/temp/Job-42.odb,Step-1,Increment      1: Step Time =    1.000,"P-42-1",           684,       14.3974,       113.834,            0.,NA,NA,"",   735.995E+03,  -781.564E+03,  -781.564E+03
C:/temp/Job-42.odb,Step-1,Increment      1: Step Time =    1.000,"P-42-1",           685,       185.647,       88.0429,            0.,NA,NA,"",   2.69227E+06,  -889.031E+03,  -889.031E+03
C:/temp/Job-42.odb,Step-1,Increment      1: Step Time =    1.000,"P-42-1",           686,       13.9612,       108.618,            0.,NA,NA,"",   625.817E+03,  -671.792E+03,  -671.792E+03
C:/temp/Job-42.odb,Step-1,Increment      1: Step Time =    1.000,"P-42-1",           687,       13.5838,       98.1616,            0.,NA,NA,"",   555.658E+03,  -601.951E+03,  -601.951E+03
C:/temp/Job-42.odb,Step-1,Increment      1: Step Time =    1.000,"P-42-1",           688,       13.4573,       86.8095,            0.,NA,NA,"",   702.834E+03,  -751.050E+03,  -751.050E+03
C:/temp/Job-42.odb,Step-1,Increment      1: Step Time =    1.000,"P-42-1",           689,       104.173,       185.861,            0.,NA,NA,"",   7.11594E+06,     7.178E+06,     7.178E+06
C:/temp/Job-42.odb,Step-1,Increment      1: Step Time =    1.000,"P-42-1",           690,       157.549,       160.145,            0.,NA,NA,"",   4.61063E+06,   4.69184E+06,   4.69184E+06
C:/temp/Job-42.odb,Step-1,Increment      1: Step Time =    1.000,"P-42-1",           691,       42.1798,       40.2509,            0.,NA,NA,"",   3.43748E+06,  -3.49603E+06,  -3.49603E+06
C:/temp/Job-42.odb,Step-1,Increment      1: Step Time =    1.000,"P-42-1",           692,       17.2038,       76.2917,            0.,NA,NA,"",   1.10793E+06,  -1.14416E+06,  -1.14416E+06
C:/temp/Job-42.odb,Step-1,Increment      1: Step Time =    1.000,"P-42-1",           693,       16.0769,       124.256,            0.,NA,NA,"",   1.11507E+06,  -1.15114E+06,  -1.15114E+06
C:/temp/Job-42.odb,Step-1,Increment      1: Step Time =    1.000,"P-42-1",           694,       182.541,       125.399,            0.,NA,NA,"",   2.94484E+06,  -284.535E+03,  -284.535E+03
C:/temp/Job-42.odb,Step-1,Increment      1: Step Time =    1.000,"P-42-1",           695,       183.855,       74.3434,            0.,NA,NA,"",   3.01188E+06,   122.731E+03,   122.731E+03
C:/temp/Job-42.odb,Step-1,Increment      1: Step Time =    1.000,"P-42-1",           696,       184.049,       120.216,            0.,NA,NA,"",   2.94990E+06,  -523.502E+03,  -523.502E+03
C:/temp/Job-42.odb,Step-1,Increment      1: Step Time =    1.000,"P-42-1",           697,       185.145,       83.1358,            0.,NA,NA,"",   2.85554E+06,  -494.675E+03,  -494.675E+03
C:/temp/Job-42.odb,Step-1,Increment      1: Step Time =    1.000,"P-42-1",           698,       15.9394,       81.4128,            0.,NA,NA,"",   892.561E+03,  -934.759E+03,  -934.759E+03
C:/temp/Job-42.odb,Step-1,Increment      1: Step Time =    1.000,"P-42-1",           699,       15.0685,       119.094,            0.,NA,NA,"",   901.563E+03,  -944.139E+03,  -944.139E+03
C:/temp/Job-42.odb,Step-1,Increment      1: Step Time =    1.000,"P-42-1",           700,       151.966,       170.838,            0.,NA,NA,"",   4.77305E+06,   4.92607E+06,   4.92607E+06
C:/temp/Job-42.odb,Step-1,Increment      1: Step Time =    1.000,"P-42-1",           701,       152.554,       29.8496,            0.,NA,NA,"",   4.76443E+06,   4.91644E+06,   4.91644E+06
C:/temp/Job-42.odb,Step-1,Increment      1: Step Time =    1.000,"P-42-1",           702,       46.9345,       170.955,            0.,NA,NA,"",   1.83928E+06,  -953.532E+03,  -953.532E+03
C:/temp/Job-42.odb,Step-1,Increment      1: Step Time =    1.000,"P-42-1",           703,       47.1162,       28.9942,            0.,NA,NA,"",   1.88322E+06,  -1.01979E+06,  -1.01979E+06
C:/temp/Job-42.odb,Step-1,Increment      1: Step Time =    1.000,"P-42-1",           704,       61.0904,       14.1194,            0.,NA,NA,"",   4.63687E+06,   4.19492E+06,   4.19492E+06
C:/temp/Job-42.odb,Step-1,Increment      1: Step Time =    1.000,"P-42-1",           705,       12.0347,       63.7895,            0.,NA,NA,"",   1.33792E+06,  -1.32794E+06,  -1.32794E+06
C:/temp/Job-42.odb,Step-1,Increment      1: Step Time =    1.000,"P-42-1",           706,       185.043,       58.2058,            0.,NA,NA,"",   3.17052E+06,   2.68652E+06,   2.68652E+06
C:/temp/Job-42.odb,Step-1,Increment      1: Step Time =    1.000,"P-42-1",           707,       55.2276,       186.137,            0.,NA,NA,"",   4.59951E+06,   4.27973E+06,   4.27973E+06
C:/temp/Job-42.odb,Step-1,Increment      1: Step Time =    1.000,"P-42-1",           708,       141.769,       13.0334,            0.,NA,NA,"",   2.06490E+06,   2.06600E+06,   2.06600E+06
C:/temp/Job-42.odb,Step-1,Increment      1: Step Time =    1.000,"P-42-1",           709,       186.362,       139.294,            0.,NA,NA,"",   3.22836E+06,   2.75019E+06,   2.75019E+06
C:/temp/Job-42.odb,Step-1,Increment      1: Step Time =    1.000,"P-42-1",           710,       135.841,       186.739,            0.,NA,NA,"",   2.52073E+06,   2.63541E+06,   2.63541E+06
C:/temp/Job-42.odb,Step-1,Increment      1: Step Time =    1.000,"P-42-1",           711,       173.161,       54.2212,            0.,NA,NA,"",   2.77968E+06,   2.39473E+06,   2.39473E+06
C:/temp/Job-42.odb,Step-1,Increment      1: Step Time =    1.000,"P-42-1",           712,       26.6356,       146.192,            0.,NA,NA,"",   2.23597E+06,  -2.24669E+06,  -2.24669E+06
C:/temp/Job-42.odb,Step-1,Increment      1: Step Time =    1.000,"P-42-1",           713,       131.051,       16.3633,            0.,NA,NA,"",   4.94026E+06,   5.18270E+06,   5.18270E+06
C:/temp/Job-42.odb,Step-1,Increment      1: Step Time =    1.000,"P-42-1",           714,       68.9474,       183.114,            0.,NA,NA,"",   4.17213E+06,   3.53401E+06,   3.53401E+06
C:/temp/Job-42.odb,Step-1,Increment      1: Step Time =    1.000,"P-42-1",           715,       124.796,       182.562,            0.,NA,NA,"",   6.95991E+06,   7.23653E+06,   7.23653E+06
C:/temp/Job-42.odb,Step-1,Increment      1: Step Time =    1.000,"P-42-1",           716,       75.1587,       14.9145,            0.,NA,NA,"",   4.94604E+06,   4.40727E+06,   4.40727E+06
C:/temp/Job-42.odb,Step-1,Increment      1: Step Time =    1.000,"P-42-1",           717,       17.2339,       58.4802,            0.,NA,NA,"",   1.60588E+06,  -1.56774E+06,  -1.56774E+06
C:/temp/Job-42.odb,Step-1,Increment      1: Step Time =    1.000,"P-42-1",           718,       181.513,       56.4265,            0.,NA,NA,"",   3.16217E+06,   2.58584E+06,   2.58584E+06
C:/temp/Job-42.odb,Step-1,Increment      1: Step Time =    1.000,"P-42-1",           719,       17.5904,       142.214,            0.,NA,NA,"",   1.63019E+06,  -1.59109E+06,  -1.59109E+06
C:/temp/Job-42.odb,Step-1,Increment      1: Step Time =    1.000,"P-42-1",           720,       180.742,       141.576,            0.,NA,NA,"",   3.11418E+06,   2.46485E+06,   2.46485E+06
C:/temp/Job-42.odb,Step-1,Increment      1: Step Time =    1.000,"P-42-1",           721,       24.9388,       55.1997,            0.,NA,NA,"",   2.10791E+06,  -2.11515E+06,  -2.11515E+06
C:/temp/Job-42.odb,Step-1,Increment      1: Step Time =    1.000,"P-42-1",           722,       174.958,       144.799,            0.,NA,NA,"",   2.77936E+06,   2.33288E+06,   2.33288E+06
C:/temp/Job-42.odb,Step-1,Increment      1: Step Time =    1.000,"P-42-1",           723,       132.305,       12.1812,            0.,NA,NA,"",   2.33678E+06,   2.48272E+06,   2.48272E+06
C:/temp/Job-42.odb,Step-1,Increment      1: Step Time =    1.000,"P-42-1",           724,       13.0996,       130.048,            0.,NA,NA,"",   1.21587E+06,  -1.23967E+06,  -1.23967E+06
C:/temp/Job-42.odb,Step-1,Increment      1: Step Time =    1.000,"P-42-1",           725,       13.5756,       70.4113,            0.,NA,NA,"",   1.22527E+06,  -1.24940E+06,  -1.24940E+06
C:/temp/Job-42.odb,Step-1,Increment      1: Step Time =    1.000,"P-42-1",           726,       70.6692,       12.6478,            0.,NA,NA,"",   5.11273E+06,   4.59807E+06,   4.59807E+06
C:/temp/Job-42.odb,Step-1,Increment      1: Step Time =    1.000,"P-42-1",           727,       70.3110,       186.573,            0.,NA,NA,"",   4.88297E+06,   4.35553E+06,   4.35553E+06
C:/temp/Job-42.odb,Step-1,Increment      1: Step Time =    1.000,"P-42-1",           728,       188.418,       65.9451,            0.,NA,NA,"",   3.40290E+06,   3.02392E+06,   3.02392E+06
C:/temp/Job-42.odb,Step-1,Increment      1: Step Time =    1.000,"P-42-1",           729,       126.857,       185.470,            0.,NA,NA,"",   4.51647E+06,   4.74798E+06,   4.74798E+06
C:/temp/Job-42.odb,Step-1,Increment      1: Step Time =    1.000,"P-42-1",           730,       185.018,       132.379,            0.,NA,NA,"",   3.23096E+06,   2.47915E+06,   2.47915E+06
C:/temp/Job-42.odb,Step-1,Increment      1: Step Time =    1.000,"P-42-1",           731,       172.741,       149.796,            0.,NA,NA,"",   2.94379E+06,   2.66646E+06,   2.66646E+06
C:/temp/Job-42.odb,Step-1,Increment      1: Step Time =    1.000,"P-42-1",           732,       27.9392,       50.2759,            0.,NA,NA,"",   2.21358E+06,  -2.23178E+06,  -2.23178E+06
C:/temp/Job-42.odb,Step-1,Increment      1: Step Time =    1.000,"P-42-1",           733,       64.9971,       17.8944,            0.,NA,NA,"",   3.81403E+06,   3.11754E+06,   3.11754E+06
C:/temp/Job-42.odb,Step-1,Increment      1: Step Time =    1.000,"P-42-1",           734,       131.268,       187.759,            0.,NA,NA,"",   2.38584E+06,   2.53092E+06,   2.53092E+06
C:/temp/Job-42.odb,Step-1,Increment      1: Step Time =    1.000,"P-42-1",           735,       160.746,       164.513,            0.,NA,NA,"",   3.85426E+06,   3.92831E+06,   3.92831E+06
C:/temp/Job-42.odb,Step-1,Increment      1: Step Time =    1.000,"P-42-1",           736,       38.4235,       36.5204,            0.,NA,NA,"",   1.90261E+06,  -1.91181E+06,  -1.91181E+06
C:/temp/Job-42.odb,Step-1,Increment      1: Step Time =    1.000,"P-42-1",           737,       120.291,       15.0157,            0.,NA,NA,"",   6.17302E+06,   6.42434E+06,   6.42434E+06
C:/temp/Job-42.odb,Step-1,Increment      1: Step Time =    1.000,"P-42-1",           738,       107.518,       185.035,            0.,NA,NA,"",   7.53769E+06,   7.66491E+06,   7.66491E+06
C:/temp/Job-42.odb,Step-1,Increment      1: Step Time =    1.000,"P-42-1",           739,       94.7175,       186.222,            0.,NA,NA,"",   6.42234E+06,   6.26035E+06,   6.26035E+06
C:/temp/Job-42.odb,Step-1,Increment      1: Step Time =    1.000,"P-42-1",           740,       79.5198,       185.599,            0.,NA,NA,"",   5.25324E+06,   4.74067E+06,   4.74067E+06
C:/temp/Job-42.odb,Step-1,Increment      1: Step Time =    1.000,"P-42-1",           741,       104.260,       14.4908,            0.,NA,NA,"",   7.22717E+06,   7.32025E+06,   7.32025E+06
C:/temp/Job-42.odb,Step-1,Increment      1: Step Time =    1.000,"P-42-1",           742,       17.4503,       129.061,            0.,NA,NA,"",   1.34045E+06,  -1.36733E+06,  -1.36733E+06
C:/temp/Job-42.odb,Step-1,Increment      1: Step Time =    1.000,"P-42-1",           743,       183.416,       70.8254,            0.,NA,NA,"",   3.04043E+06,   1.15015E+06,   1.15015E+06
C:/temp/Job-42.odb,Step-1,Increment      1: Step Time =    1.000,"P-42-1",           744,       47.0219,       21.8207,            0.,NA,NA,"",   2.58211E+06,   2.08424E+06,   2.08424E+06
C:/temp/Job-42.odb,Step-1,Increment      1: Step Time =    1.000,"P-42-1",           745,       150.837,       177.559,            0.,NA,NA,"",   3.73606E+06,   3.84990E+06,   3.84990E+06
C:/temp/Job-42.odb,Step-1,Increment      1: Step Time =    1.000,"P-42-1",           746,       184.178,       67.3928,            0.,NA,NA,"",   3.13718E+06,   2.30171E+06,   2.30171E+06
C:/temp/Job-42.odb,Step-1,Increment      1: Step Time =    1.000,"P-42-1",           747,       13.8281,       134.499,            0.,NA,NA,"",   1.35215E+06,  -1.35653E+06,  -1.35653E+06
C:/temp/Job-42.odb,Step-1,Increment      1: Step Time =    1.000,"P-42-1",           748,       15.9702,       64.5368,            0.,NA,NA,"",   1.46727E+06,  -1.46578E+06,  -1.46578E+06
C:/temp/Job-42.odb,Step-1,Increment      1: Step Time =    1.000,"P-42-1",           749,       63.3757,       184.663,            0.,NA,NA,"",   4.36303E+06,   3.84534E+06,   3.84534E+06
C:/temp/Job-42.odb,Step-1,Increment      1: Step Time =    1.000,"P-42-1",           750,       136.420,       17.1855,            0.,NA,NA,"",   4.47617E+06,   4.68548E+06,   4.68548E+06
C:/temp/Job-42.odb,Step-1,Increment      1: Step Time =    1.000,"P-42-1",           751,       182.752,       136.969,            0.,NA,NA,"",   3.18575E+06,   2.44269E+06,   2.44269E+06
C:/temp/Job-42.odb,Step-1,Increment      1: Step Time =    1.000,"P-42-1",           752,       125.800,       15.3293,            0.,NA,NA,"",   5.37322E+06,   5.62406E+06,   5.62406E+06
C:/temp/Job-42.odb,Step-1,Increment      1: Step Time =    1.000,"P-42-1",           753,       74.6676,       185.723,            0.,NA,NA,"",   4.97426E+06,   4.43881E+06,   4.43881E+06
C:/temp/Job-42.odb,Step-1,Increment      1: Step Time =    1.000,"P-42-1",           754,       61.2819,       18.3674,            0.,NA,NA,"",   3.59594E+06,   2.91973E+06,   2.91973E+06
C:/temp/Job-42.odb,Step-1,Increment      1: Step Time =    1.000,"P-42-1",           755,       138.774,       180.997,            0.,NA,NA,"",   4.82863E+06,   5.02945E+06,   5.02945E+06
C:/temp/Job-42.odb,Step-1,Increment      1: Step Time =    1.000,"P-42-1",           756,       165.077,       160.509,            0.,NA,NA,"",   3.44524E+06,   3.44716E+06,   3.44716E+06
C:/temp/Job-42.odb,Step-1,Increment      1: Step Time =    1.000,"P-42-1",           757,       34.7129,       41.2210,            0.,NA,NA,"",   2.09326E+06,  -2.13435E+06,  -2.13435E+06
C:/temp/Job-42.odb,Step-1,Increment      1: Step Time =    1.000,"P-42-1",           758,       49.0513,       19.1346,            0.,NA,NA,"",   3.16165E+06,   2.73628E+06,   2.73628E+06
C:/temp/Job-42.odb,Step-1,Increment      1: Step Time =    1.000,"P-42-1",           759,       148.568,       181.685,            0.,NA,NA,"",   3.12302E+06,   3.19775E+06,   3.19775E+06
C:/temp/Job-42.odb,Step-1,Increment      1: Step Time =    1.000,"P-42-1",           760,       25.9575,       153.121,            0.,NA,NA,"",   1.73410E+06,  -1.70743E+06,  -1.70743E+06
C:/temp/Job-42.odb,Step-1,Increment      1: Step Time =    1.000,"P-42-1",           761,       175.270,       44.5503,            0.,NA,NA,"",   2.95382E+06,   2.69408E+06,   2.69408E+06
C:/temp/Job-42.odb,Step-1,Increment      1: Step Time =    1.000,"P-42-1",           762,       43.8268,       24.9258,            0.,NA,NA,"",   1.96331E+06,   1.02298E+06,   1.02298E+06
C:/temp/Job-42.odb,Step-1,Increment      1: Step Time =    1.000,"P-42-1",           763,       154.556,       174.860,            0.,NA,NA,"",   3.74530E+06,   3.84187E+06,   3.84187E+06
C:/temp/Job-42.odb,Step-1,Increment      1: Step Time =    1.000,"P-42-1",           764,       70.7031,       18.1913,            0.,NA,NA,"",   3.92262E+06,   3.28589E+06,   3.28589E+06
C:/temp/Job-42.odb,Step-1,Increment      1: Step Time =    1.000,"P-42-1",           765,       128.507,       180.762,            0.,NA,NA,"",   7.51752E+06,   7.77072E+06,   7.77072E+06
C:/temp/Job-42.odb,Step-1,Increment      1: Step Time =    1.000,"P-42-1",           766,       121.728,       184.993,            0.,NA,NA,"",   5.62236E+06,   5.87634E+06,   5.87634E+06
C:/temp/Job-42.odb,Step-1,Increment      1: Step Time =    1.000,"P-42-1",           767,       81.0654,       13.6928,            0.,NA,NA,"",   5.46745E+06,   4.98078E+06,   4.98078E+06
C:/temp/Job-42.odb,Step-1,Increment      1: Step Time =    1.000,"P-42-1",           768,       55.9096,       181.508,            0.,NA,NA,"",   3.47593E+06,   2.91075E+06,   2.91075E+06
C:/temp/Job-42.odb,Step-1,Increment      1: Step Time =    1.000,"P-42-1",           769,       142.742,       17.8368,            0.,NA,NA,"",   3.68985E+06,   3.82641E+06,   3.82641E+06
C:/temp/Job-42.odb,Step-1,Increment      1: Step Time =    1.000,"P-42-1",           770,       141.562,       185.091,            0.,NA,NA,"",   2.76395E+06,   2.83639E+06,   2.83639E+06
C:/temp/Job-42.odb,Step-1,Increment      1: Step Time =    1.000,"P-42-1",           771,       56.3102,       14.4013,            0.,NA,NA,"",   4.49824E+06,   4.14675E+06,   4.14675E+06
C:/temp/Job-42.odb,Step-1,Increment      1: Step Time =    1.000,"P-42-1",           772,       180.081,       65.8273,            0.,NA,NA,"",   2.72756E+06,   1.19659E+06,   1.19659E+06
C:/temp/Job-42.odb,Step-1,Increment      1: Step Time =    1.000,"P-42-1",           773,       18.2248,       133.697,            0.,NA,NA,"",   1.51321E+06,  -1.52830E+06,  -1.52830E+06
C:/temp/Job-42.odb,Step-1,Increment      1: Step Time =    1.000,"P-42-1",           774,       168.363,       165.293,            0.,NA,NA,"",   2.99774E+06,   2.95883E+06,   2.95883E+06
C:/temp/Job-42.odb,Step-1,Increment      1: Step Time =    1.000,"P-42-1",           775,       31.2587,       38.6254,            0.,NA,NA,"",   1.25285E+06,  -1.23457E+06,  -1.23457E+06
C:/temp/Job-42.odb,Step-1,Increment      1: Step Time =    1.000,"P-42-1",           776,       159.406,       173.055,            0.,NA,NA,"",   3.36481E+06,   3.41625E+06,   3.41625E+06
C:/temp/Job-42.odb,Step-1,Increment      1: Step Time =    1.000,"P-42-1",           777,       38.9351,       27.2549,            0.,NA,NA,"",   1.64184E+06,   572.218E+03,   572.218E+03
C:/temp/Job-42.odb,Step-1,Increment      1: Step Time =    1.000,"P-42-1",           778,       178.130,       151.821,            0.,NA,NA,"",   2.94351E+06,   2.59618E+06,   2.59618E+06
C:/temp/Job-42.odb,Step-1,Increment      1: Step Time =    1.000,"P-42-1",           779,       23.9503,       48.1356,            0.,NA,NA,"",   1.67319E+06,  -1.63184E+06,  -1.63184E+06
C:/temp/Job-42.odb,Step-1,Increment      1: Step Time =    1.000,"P-42-1",           780,       51.8467,       14.8053,            0.,NA,NA,"",   4.35167E+06,   4.05846E+06,   4.05846E+06
C:/temp/Job-42.odb,Step-1,Increment      1: Step Time =    1.000,"P-42-1",           781,       146.863,       186.256,            0.,NA,NA,"",   2.07154E+06,   2.04164E+06,   2.04164E+06
C:/temp/Job-42.odb,Step-1,Increment      1: Step Time =    1.000,"P-42-1",           782,       28.3736,       157.033,            0.,NA,NA,"",   1.58319E+06,  -1.57242E+06,  -1.57242E+06
C:/temp/Job-42.odb,Step-1,Increment      1: Step Time =    1.000,"P-42-1",           783,       175.143,       39.8686,            0.,NA,NA,"",   2.78178E+06,   2.60490E+06,   2.60490E+06
C:/temp/Job-42.odb,Step-1,Increment      1: Step Time =    1.000,"P-42-1",           784,       51.0540,       186.022,            0.,NA,NA,"",   4.56060E+06,   4.31182E+06,   4.31182E+06
C:/temp/Job-42.odb,Step-1,Increment      1: Step Time =    1.000,"P-42-1",           785,       148.543,       14.9944,            0.,NA,NA,"",   2.32990E+06,   2.31718E+06,   2.31718E+06
C:/temp/Job-42.odb,Step-1,Increment      1: Step Time =    1.000,"P-42-1",           786,       65.7763,       180.658,            0.,NA,NA,"",   3.43774E+06,   2.71968E+06,   2.71968E+06
C:/temp/Job-42.odb,Step-1,Increment      1: Step Time =    1.000,"P-42-1",           787,       134.891,       21.4175,            0.,NA,NA,"",   7.02374E+06,   7.26144E+06,   7.26144E+06
C:/temp/Job-42.odb,Step-1,Increment      1: Step Time =    1.000,"P-42-1",           788,       130.924,       175.555,            0.,NA,NA,"",   10.2694E+06,   10.4444E+06,   10.4444E+06
C:/temp/Job-42.odb,Step-1,Increment      1: Step Time =    1.000,"P-42-1",           789,       68.8163,       24.1720,            0.,NA,NA,"",   1.99017E+06,  -15.2771E+03,  -15.2771E+03
C:/temp/Job-42.odb,Step-1,Increment      1: Step Time =    1.000,"P-42-1",           790,       185.428,       146.897,            0.,NA,NA,"",   2.94293E+06,   2.55958E+06,   2.55958E+06
C:/temp/Job-42.odb,Step-1,Increment      1: Step Time =    1.000,"P-42-1",           791,       13.4692,       54.7494,            0.,NA,NA,"",   1.38692E+06,  -1.30377E+06,  -1.30377E+06
C:/temp/Job-42.odb,Step-1,Increment      1: Step Time =    1.000,"P-42-1",           792,       156.328,       183.068,            0.,NA,NA,"",   2.24060E+06,   2.17378E+06,   2.17378E+06
C:/temp/Job-42.odb,Step-1,Increment      1: Step Time =    1.000,"P-42-1",           793,       173.091,       48.6767,            0.,NA,NA,"",   3.06411E+06,   2.76953E+06,   2.76953E+06
C:/temp/Job-42.odb,Step-1,Increment      1: Step Time =    1.000,"P-42-1",           794,       23.2654,       149.139,            0.,NA,NA,"",   1.79729E+06,  -1.75814E+06,  -1.75814E+06
C:/temp/Job-42.odb,Step-1,Increment      1: Step Time =    1.000,"P-42-1",           795,       26.4985,       41.9869,            0.,NA,NA,"",   1.25778E+06,  -1.21028E+06,  -1.21028E+06
C:/temp/Job-42.odb,Step-1,Increment      1: Step Time =    1.000,"P-42-1",           796,       189.821,       78.7939,            0.,NA,NA,"",   3.64681E+06,   3.41440E+06,   3.41440E+06
C:/temp/Job-42.odb,Step-1,Increment      1: Step Time =    1.000,"P-42-1",           797,       13.0629,       80.3286,            0.,NA,NA,"",   869.617E+03,  -917.453E+03,  -917.453E+03
C:/temp/Job-42.odb,Step-1,Increment      1: Step Time =    1.000,"P-42-1",           798,       188.015,       121.959,            0.,NA,NA,"",   3.17713E+06,   2.68052E+06,   2.68052E+06
C:/temp/Job-42.odb,Step-1,Increment      1: Step Time =    1.000,"P-42-1",           799,       29.1426,       57.3508,            0.,NA,NA,"",   2.66505E+06,  -2.69600E+06,  -2.69600E+06
C:/temp/Job-42.odb,Step-1,Increment      1: Step Time =    1.000,"P-42-1",           800,       170.713,       142.756,            0.,NA,NA,"",   2.08300E+06,   1.85713E+06,   1.85713E+06
C:/temp/Job-42.odb,Step-1,Increment      1: Step Time =    1.000,"P-42-1",           801,       9.10103,       164.722,            0.,NA,NA,"",   576.397E+03,   653.802E+03,   653.802E+03
C:/temp/Job-42.odb,Step-1,Increment      1: Step Time =    1.000,"P-42-1",           802,       164.886,       13.5214,            0.,NA,NA,"",   1.52751E+06,   1.35431E+06,   1.35431E+06
C:/temp/Job-42.odb,Step-1,Increment      1: Step Time =    1.000,"P-42-1",           803,       13.9099,       34.0501,            0.,NA,NA,"",   650.807E+03,   747.531E+03,   747.531E+03
C:/temp/Job-42.odb,Step-1,Increment      1: Step Time =    1.000,"P-42-1",           804,       34.9207,       11.2786,            0.,NA,NA,"",   5.27425E+06,   5.22601E+06,   5.22601E+06
C:/temp/Job-42.odb,Step-1,Increment      1: Step Time =    1.000,"P-42-1",           805,       186.383,       165.908,            0.,NA,NA,"",   1.73397E+06,   1.61820E+06,   1.61820E+06
C:/temp/Job-42.odb,Step-1,Increment      1: Step Time =    1.000,"P-42-1",           806,       164.930,       191.175,            0.,NA,NA,"",   1.01985E+06,   516.817E+03,   516.817E+03
C:/temp/Job-42.odb,Step-1,Increment      1: Step Time =    1.000,"P-42-1",           807,       35.7919,       186.873,            0.,NA,NA,"",   4.83435E+06,   4.76795E+06,   4.76795E+06
C:/temp/Job-42.odb,Step-1,Increment      1: Step Time =    1.000,"P-42-1",           808,       190.732,       35.6525,            0.,NA,NA,"",   1.51010E+06,   1.38316E+06,   1.38316E+06
C:/temp/Job-42.odb,Step-1,Increment      1: Step Time =    1.000,"P-42-1",           809,       19.9832,       151.740,            0.,NA,NA,"",   1.43444E+06,  -1.32872E+06,  -1.32872E+06
C:/temp/Job-42.odb,Step-1,Increment      1: Step Time =    1.000,"P-42-1",           810,       178.844,       48.0816,            0.,NA,NA,"",   2.98990E+06,   2.61489E+06,   2.61489E+06
C:/temp/Job-42.odb,Step-1,Increment      1: Step Time =    1.000,"P-42-1",           811,       13.5888,       163.902,            0.,NA,NA,"",   491.678E+03,   553.203E+03,   553.203E+03
C:/temp/Job-42.odb,Step-1,Increment      1: Step Time =    1.000,"P-42-1",           812,       165.253,       17.6385,            0.,NA,NA,"",   1.94403E+06,   1.82585E+06,   1.82585E+06
C:/temp/Job-42.odb,Step-1,Increment      1: Step Time =    1.000,"P-42-1",           813,       33.6058,       16.1678,            0.,NA,NA,"",   4.02429E+06,   3.95562E+06,   3.95562E+06
C:/temp/Job-42.odb,Step-1,Increment      1: Step Time =    1.000,"P-42-1",           814,       16.9408,       33.0624,            0.,NA,NA,"",   683.140E+03,   780.519E+03,   780.519E+03
C:/temp/Job-42.odb,Step-1,Increment      1: Step Time =    1.000,"P-42-1",           815,       164.585,       186.609,            0.,NA,NA,"",   1.50650E+06,   1.33242E+06,   1.33242E+06
C:/temp/Job-42.odb,Step-1,Increment      1: Step Time =    1.000,"P-42-1",           816,       183.397,       166.606,            0.,NA,NA,"",   1.89388E+06,   1.78166E+06,   1.78166E+06
C:/temp/Job-42.odb,Step-1,Increment      1: Step Time =    1.000,"P-42-1",           817,       186.532,       36.9435,            0.,NA,NA,"",   1.82035E+06,   1.69800E+06,   1.69800E+06
C:/temp/Job-42.odb,Step-1,Increment      1: Step Time =    1.000,"P-42-1",           818,       8.34629,       54.9645,            0.,NA,NA,"",   1.18680E+06,  -1.13646E+06,  -1.13646E+06
C:/temp/Job-42.odb,Step-1,Increment      1: Step Time =    1.000,"P-42-1",           819,       55.4642,       190.538,            0.,NA,NA,"",   5.71135E+06,   5.55353E+06,   5.55353E+06
C:/temp/Job-42.odb,Step-1,Increment      1: Step Time =    1.000,"P-42-1",           820,       143.778,       7.76992,            0.,NA,NA,"",   1.26329E+06,  -341.581E+03,  -341.581E+03
C:/temp/Job-42.odb,Step-1,Increment      1: Step Time =    1.000,"P-42-1",           821,       191.920,       144.366,            0.,NA,NA,"",   2.52100E+06,   2.50657E+06,   2.50657E+06
C:/temp/Job-42.odb,Step-1,Increment      1: Step Time =    1.000,"P-42-1",           822,       17.2445,       50.5877,            0.,NA,NA,"",   1.40363E+06,  -1.30153E+06,  -1.30153E+06
C:/temp/Job-42.odb,Step-1,Increment      1: Step Time =    1.000,"P-42-1",           823,       141.914,       178.753,            0.,NA,NA,"",   4.94824E+06,   5.13486E+06,   5.13486E+06
C:/temp/Job-42.odb,Step-1,Increment      1: Step Time =    1.000,"P-42-1",           824,       56.8376,       19.1091,            0.,NA,NA,"",   3.32132E+06,   2.70872E+06,   2.70872E+06
C:/temp/Job-42.odb,Step-1,Increment      1: Step Time =    1.000,"P-42-1",           825,       163.983,       169.316,            0.,NA,NA,"",   3.18358E+06,   3.20286E+06,   3.20286E+06
C:/temp/Job-42.odb,Step-1,Increment      1: Step Time =    1.000,"P-42-1",           826,       34.1930,       32.9991,            0.,NA,NA,"",   1.07540E+06,  -514.865E+03,  -514.865E+03
C:/temp/Job-42.odb,Step-1,Increment      1: Step Time =    1.000,"P-42-1",           827,       47.6064,       15.6848,            0.,NA,NA,"",   4.07039E+06,   3.79324E+06,   3.79324E+06
C:/temp/Job-42.odb,Step-1,Increment      1: Step Time =    1.000,"P-42-1",           828,       151.608,       187.012,            0.,NA,NA,"",   1.72915E+06,   1.61446E+06,   1.61446E+06
C:/temp/Job-42.odb,Step-1,Increment      1: Step Time =    1.000,"P-42-1",           829,       31.4467,       160.590,            0.,NA,NA,"",   1.40781E+06,  -1.40960E+06,  -1.40960E+06
C:/temp/Job-42.odb,Step-1,Increment      1: Step Time =    1.000,"P-42-1",           830,       170.565,       39.2837,            0.,NA,NA,"",   3.01374E+06,   2.92008E+06,   2.92008E+06
C:/temp/Job-42.odb,Step-1,Increment      1: Step Time =    1.000,"P-42-1",           831,       47.9854,       181.553,            0.,NA,NA,"",   3.35082E+06,   2.96552E+06,   2.96552E+06
C:/temp/Job-42.odb,Step-1,Increment      1: Step Time =    1.000,"P-42-1",           832,       151.472,       19.1374,            0.,NA,NA,"",   3.04006E+06,   3.09624E+06,   3.09624E+06
C:/temp/Job-42.odb,Step-1,Increment      1: Step Time =    1.000,"P-42-1",           833,       160.147,       182.601,            0.,NA,NA,"",   2.14049E+06,   2.05945E+06,   2.05945E+06
C:/temp/Job-42.odb,Step-1,Increment      1: Step Time =    1.000,"P-42-1",           834,       37.2625,       18.6117,            0.,NA,NA,"",   3.39172E+06,   3.24675E+06,   3.24675E+06
C:/temp/Job-42.odb,Step-1,Increment      1: Step Time =    1.000,"P-42-1",           835,       186.108,       63.8447,            0.,NA,NA,"",   3.27164E+06,   2.71023E+06,   2.71023E+06
C:/temp/Job-42.odb,Step-1,Increment      1: Step Time =    1.000,"P-42-1",           836,       14.9348,       138.771,            0.,NA,NA,"",   1.49090E+06,  -1.47214E+06,  -1.47214E+06
C:/temp/Job-42.odb,Step-1,Increment      1: Step Time =    1.000,"P-42-1",           837,       46.2897,       185.641,            0.,NA,NA,"",   4.43481E+06,   4.21922E+06,   4.21922E+06
C:/temp/Job-42.odb,Step-1,Increment      1: Step Time =    1.000,"P-42-1",           838,       152.545,       13.0818,            0.,NA,NA,"",   1.78835E+06,   1.64352E+06,   1.64352E+06
C:/temp/Job-42.odb,Step-1,Increment      1: Step Time =    1.000,"P-42-1",           839,       22.3746,       37.8747,            0.,NA,NA,"",   611.851E+03,  -137.746E+03,  -137.746E+03
C:/temp/Job-42.odb,Step-1,Increment      1: Step Time =    1.000,"P-42-1",           840,       178.942,       161.878,            0.,NA,NA,"",   2.45544E+06,   2.29065E+06,   2.29065E+06
C:/temp/Job-42.odb,Step-1,Increment      1: Step Time =    1.000,"P-42-1",           841,       42.7481,       182.335,            0.,NA,NA,"",   3.61441E+06,   3.40034E+06,   3.40034E+06
C:/temp/Job-42.odb,Step-1,Increment      1: Step Time =    1.000,"P-42-1",           842,       155.867,       14.9889,            0.,NA,NA,"",   1.97016E+06,   1.83978E+06,   1.83978E+06
C:/temp/Job-42.odb,Step-1,Increment      1: Step Time =    1.000,"P-42-1",           843,       17.2163,       154.103,            0.,NA,NA,"",   1.09697E+06,  -935.756E+03,  -935.756E+03
C:/temp/Job-42.odb,Step-1,Increment      1: Step Time =    1.000,"P-42-1",           844,       182.076,       45.5905,            0.,NA,NA,"",   2.69871E+06,   2.40770E+06,   2.40770E+06
C:/temp/Job-42.odb,Step-1,Increment      1: Step Time =    1.000,"P-42-1",           845,       15.4185,       168.440,            0.,NA,NA,"",   971.963E+03,   1.08949E+06,   1.08949E+06
C:/temp/Job-42.odb,Step-1,Increment      1: Step Time =    1.000,"P-42-1",           846,       168.711,       16.9217,            0.,NA,NA,"",   1.75709E+06,   1.63378E+06,   1.63378E+06
C:/temp/Job-42.odb,Step-1,Increment      1: Step Time =    1.000,"P-42-1",           847,       17.4542,       30.1504,            0.,NA,NA,"",   1.12051E+06,   1.24280E+06,   1.24280E+06
C:/temp/Job-42.odb,Step-1,Increment      1: Step Time =    1.000,"P-42-1",           848,       29.2707,       14.9855,            0.,NA,NA,"",   4.37629E+06,   4.36104E+06,   4.36104E+06
C:/temp/Job-42.odb,Step-1,Increment      1: Step Time =    1.000,"P-42-1",           849,       182.535,       169.462,            0.,NA,NA,"",   1.79839E+06,   1.70205E+06,   1.70205E+06
C:/temp/Job-42.odb,Step-1,Increment      1: Step Time =    1.000,"P-42-1",           850,       168.706,       185.941,            0.,NA,NA,"",   1.50268E+06,   1.34053E+06,   1.34053E+06
C:/temp/Job-42.odb,Step-1,Increment      1: Step Time =    1.000,"P-42-1",           851,       183.620,       32.7823,            0.,NA,NA,"",   1.85366E+06,   1.74394E+06,   1.74394E+06
C:/temp/Job-42.odb,Step-1,Increment      1: Step Time =    1.000,"P-42-1",           852,       32.7580,       182.024,            0.,NA,NA,"",   3.61561E+06,   3.53268E+06,   3.53268E+06
C:/temp/Job-42.odb,Step-1,Increment      1: Step Time =    1.000,"P-42-1",           853,       152.833,       9.49851,            0.,NA,NA,"",   1.26553E+06,   325.073E+03,   325.073E+03
C:/temp/Job-42.odb,Step-1,Increment      1: Step Time =    1.000,"P-42-1",           854,       189.826,       153.854,            0.,NA,NA,"",   2.05942E+06,   1.92663E+06,   1.92663E+06
C:/temp/Job-42.odb,Step-1,Increment      1: Step Time =    1.000,"P-42-1",           855,       46.2913,       190.877,            0.,NA,NA,"",   5.87638E+06,   5.77105E+06,   5.77105E+06
C:/temp/Job-42.odb,Step-1,Increment      1: Step Time =    1.000,"P-42-1",           856,       9.37699,       45.8853,            0.,NA,NA,"",   787.938E+03,  -626.981E+03,  -626.981E+03
C:/temp/Job-42.odb,Step-1,Increment      1: Step Time =    1.000,"P-42-1",           857,       35.2750,       158.028,            0.,NA,NA,"",   2.36325E+06,  -2.41879E+06,  -2.41879E+06
C:/temp/Job-42.odb,Step-1,Increment      1: Step Time =    1.000,"P-42-1",           858,       26.3998,       167.574,            0.,NA,NA,"",   762.333E+03,   673.659E+03,   673.659E+03
C:/temp/Job-42.odb,Step-1,Increment      1: Step Time =    1.000,"P-42-1",           859,       172.125,       35.0129,            0.,NA,NA,"",   2.76036E+06,   2.67909E+06,   2.67909E+06
C:/temp/Job-42.odb,Step-1,Increment      1: Step Time =    1.000,"P-42-1",           860,       165.627,       37.9818,            0.,NA,NA,"",   3.32549E+06,   3.32735E+06,   3.32735E+06
C:/temp/Job-42.odb,Step-1,Increment      1: Step Time =    1.000,"P-42-1",           861,       45.4524,       178.266,            0.,NA,NA,"",   2.63935E+06,   2.21137E+06,   2.21137E+06
C:/temp/Job-42.odb,Step-1,Increment      1: Step Time =    1.000,"P-42-1",           862,       150.299,       23.6580,            0.,NA,NA,"",   4.06569E+06,   4.21226E+06,   4.21226E+06
C:/temp/Job-42.odb,Step-1,Increment      1: Step Time =    1.000,"P-42-1",           863,       159.442,       178.078,            0.,NA,NA,"",   2.80238E+06,   2.79554E+06,   2.79554E+06
C:/temp/Job-42.odb,Step-1,Increment      1: Step Time =    1.000,"P-42-1",           864,       162.770,       176.912,            0.,NA,NA,"",   2.66807E+06,   2.64785E+06,   2.64785E+06
C:/temp/Job-42.odb,Step-1,Increment      1: Step Time =    1.000,"P-42-1",           865,       33.9396,       23.5599,            0.,NA,NA,"",   2.29960E+06,   2.16264E+06,   2.16264E+06
C:/temp/Job-42.odb,Step-1,Increment      1: Step Time =    1.000,"P-42-1",           866,       18.9344,       40.5700,            0.,NA,NA,"",   726.395E+03,  -420.276E+03,  -420.276E+03
C:/temp/Job-42.odb,Step-1,Increment      1: Step Time =    1.000,"P-42-1",           867,       25.0259,       34.6030,            0.,NA,NA,"",   593.817E+03,   234.067E+03,   234.067E+03
C:/temp/Job-42.odb,Step-1,Increment      1: Step Time =    1.000,"P-42-1",           868,       175.542,       165.232,            0.,NA,NA,"",   2.49937E+06,   2.38763E+06,   2.38763E+06
C:/temp/Job-42.odb,Step-1,Increment      1: Step Time =    1.000,"P-42-1",           869,       182.400,       159.257,            0.,NA,NA,"",   2.36252E+06,   2.16316E+06,   2.16316E+06
C:/temp/Job-42.odb,Step-1,Increment      1: Step Time =    1.000,"P-42-1",           870,       13.6570,       47.8004,            0.,NA,NA,"",   1.07960E+06,  -925.339E+03,  -925.339E+03
C:/temp/Job-42.odb,Step-1,Increment      1: Step Time =    1.000,"P-42-1",           871,       184.174,       152.947,            0.,NA,NA,"",   2.63189E+06,   2.33882E+06,   2.33882E+06
C:/temp/Job-42.odb,Step-1,Increment      1: Step Time =    1.000,"P-42-1",           872,       15.3418,       156.298,            0.,NA,NA,"",   851.596E+03,  -652.119E+03,  -652.119E+03
C:/temp/Job-42.odb,Step-1,Increment      1: Step Time =    1.000,"P-42-1",           873,       184.376,       43.3155,            0.,NA,NA,"",   2.38226E+06,   2.16378E+06,   2.16378E+06
C:/temp/Job-42.odb,Step-1,Increment      1: Step Time =    1.000,"P-42-1",           874,       15.5701,       172.873,            0.,NA,NA,"",   1.72974E+06,   1.88319E+06,   1.88319E+06
C:/temp/Job-42.odb,Step-1,Increment      1: Step Time =    1.000,"P-42-1",           875,       173.651,       14.4218,            0.,NA,NA,"",   1.42350E+06,   1.27606E+06,   1.27606E+06
C:/temp/Job-42.odb,Step-1,Increment      1: Step Time =    1.000,"P-42-1",           876,       18.5813,       165.587,            0.,NA,NA,"",   580.628E+03,   622.923E+03,   622.923E+03
C:/temp/Job-42.odb,Step-1,Increment      1: Step Time =    1.000,"P-42-1",           877,       13.8207,       25.6529,            0.,NA,NA,"",   2.00857E+06,   2.18079E+06,   2.18079E+06
C:/temp/Job-42.odb,Step-1,Increment      1: Step Time =    1.000,"P-42-1",           878,       24.7820,       14.6124,            0.,NA,NA,"",   4.45198E+06,   4.46443E+06,   4.46443E+06
C:/temp/Job-42.odb,Step-1,Increment      1: Step Time =    1.000,"P-42-1",           879,       172.825,       185.066,            0.,NA,NA,"",   1.49478E+06,   1.34940E+06,   1.34940E+06
C:/temp/Job-42.odb,Step-1,Increment      1: Step Time =    1.000,"P-42-1",           880,       185.714,       174.474,            0.,NA,NA,"",   1.48950E+06,   1.37445E+06,   1.37445E+06
C:/temp/Job-42.odb,Step-1,Increment      1: Step Time =    1.000,"P-42-1",           881,       183.298,       27.5488,            0.,NA,NA,"",   1.66399E+06,   1.56314E+06,   1.56314E+06
C:/temp/Job-42.odb,Step-1,Increment      1: Step Time =    1.000,"P-42-1",           882,       26.5578,       185.574,            0.,NA,NA,"",   4.49331E+06,   4.49151E+06,   4.49151E+06
C:/temp/Job-42.odb,Step-1,Increment      1: Step Time =    1.000,"P-42-1",           883,       180.550,       37.0771,            0.,NA,NA,"",   2.30769E+06,   2.15313E+06,   2.15313E+06
C:/temp/Job-42.odb,Step-1,Increment      1: Step Time =    1.000,"P-42-1",           884,       34.3406,       177.607,            0.,NA,NA,"",   2.52900E+06,   2.38720E+06,   2.38720E+06
C:/temp/Job-42.odb,Step-1,Increment      1: Step Time =    1.000,"P-42-1",           885,       19.8962,       46.5104,            0.,NA,NA,"",   1.27358E+06,  -1.16398E+06,  -1.16398E+06
C:/temp/Job-42.odb,Step-1,Increment      1: Step Time =    1.000,"P-42-1",           886,       180.265,       155.981,            0.,NA,NA,"",   2.68735E+06,   2.41623E+06,   2.41623E+06
C:/temp/Job-42.odb,Step-1,Increment      1: Step Time =    1.000,"P-42-1",           887,       25.4170,       171.643,            0.,NA,NA,"",   1.40004E+06,   1.41442E+06,   1.41442E+06
C:/temp/Job-42.odb,Step-1,Increment      1: Step Time =    1.000,"P-42-1",           888,       174.653,       28.2220,            0.,NA,NA,"",   2.20353E+06,   2.12929E+06,   2.12929E+06
C:/temp/Job-42.odb,Step-1,Increment      1: Step Time =    1.000,"P-42-1",           889,       172.506,       161.441,            0.,NA,NA,"",   2.85479E+06,   2.73757E+06,   2.73757E+06
C:/temp/Job-42.odb,Step-1,Increment      1: Step Time =    1.000,"P-42-1",           890,       28.1660,       37.0372,            0.,NA,NA,"",   796.282E+03,  -500.321E+03,  -500.321E+03
C:/temp/Job-42.odb,Step-1,Increment      1: Step Time =    1.000,"P-42-1",           891,       164.094,       31.3849,            0.,NA,NA,"",   3.17588E+06,   3.19425E+06,   3.19425E+06
C:/temp/Job-42.odb,Step-1,Increment      1: Step Time =    1.000,"P-42-1",           892,       34.2717,       164.284,            0.,NA,NA,"",   1.16304E+06,  -1.11397E+06,  -1.11397E+06
C:/temp/Job-42.odb,Step-1,Increment      1: Step Time =    1.000,"P-42-1",           893,       171.583,       180.514,            0.,NA,NA,"",   1.82953E+06,   1.72384E+06,   1.72384E+06
C:/temp/Job-42.odb,Step-1,Increment      1: Step Time =    1.000,"P-42-1",           894,       28.7616,       19.1916,            0.,NA,NA,"",   3.33940E+06,   3.31429E+06,   3.31429E+06
C:/temp/Job-42.odb,Step-1,Increment      1: Step Time =    1.000,"P-42-1",           895,       27.9524,       26.6759,            0.,NA,NA,"",   1.68216E+06,   1.65218E+06,   1.65218E+06
C:/temp/Job-42.odb,Step-1,Increment      1: Step Time =    1.000,"P-42-1",           896,       167.351,       174.603,            0.,NA,NA,"",   2.48554E+06,   2.43762E+06,   2.43762E+06
C:/temp/Job-42.odb,Step-1,Increment      1: Step Time =    1.000,"P-42-1",           897,       19.2732,       35.0104,            0.,NA,NA,"",   504.593E+03,   538.312E+03,   538.312E+03
C:/temp/Job-42.odb,Step-1,Increment      1: Step Time =    1.000,"P-42-1",           898,       181.466,       164.548,            0.,NA,NA,"",   2.13343E+06,   2.00168E+06,   2.00168E+06
C:/temp/Job-42.odb,Step-1,Increment      1: Step Time =    1.000,"P-42-1",           899,       183.230,       53.7125,            0.,NA,NA,"",   3.12279E+06,   2.64054E+06,   2.64054E+06
C:/temp/Job-42.odb,Step-1,Increment      1: Step Time =    1.000,"P-42-1",           900,       14.5307,       144.806,            0.,NA,NA,"",   1.43808E+06,  -1.36546E+06,  -1.36546E+06
C:/temp/Job-42.odb,Step-1,Increment      1: Step Time =    1.000,"P-42-1",           901,       161.099,       22.2489,            0.,NA,NA,"",   2.70737E+06,   2.68809E+06,   2.68809E+06
C:/temp/Job-42.odb,Step-1,Increment      1: Step Time =    1.000,"P-42-1",           902,       35.2789,       173.077,            0.,NA,NA,"",   1.54829E+06,   961.245E+03,   961.245E+03
C:/temp/Job-42.odb,Step-1,Increment      1: Step Time =    1.000,"P-42-1",           903,       23.7535,       142.312,            0.,NA,NA,"",   2.01483E+06,  -2.01655E+06,  -2.01655E+06
C:/temp/Job-42.odb,Step-1,Increment      1: Step Time =    1.000,"P-42-1",           904,       175.949,       57.1731,            0.,NA,NA,"",   2.86400E+06,   2.27695E+06,   2.27695E+06
C:/temp/Job-42.odb,Step-1,Increment      1: Step Time =    1.000,"P-42-1",           905,       161.256,       18.0983,            0.,NA,NA,"",   2.21776E+06,   2.11690E+06,   2.11690E+06
C:/temp/Job-42.odb,Step-1,Increment      1: Step Time =    1.000,"P-42-1",           906,       174.391,       9.51652,            0.,NA,NA,"",   1.02198E+06,   870.711E+03,   870.711E+03
C:/temp/Job-42.odb,Step-1,Increment      1: Step Time =    1.000,"P-42-1",           907,       171.631,       19.7847,            0.,NA,NA,"",   1.84921E+06,   1.74513E+06,   1.74513E+06
C:/temp/Job-42.odb,Step-1,Increment      1: Step Time =    1.000,"P-42-1",           908,       20.2305,       170.999,            0.,NA,NA,"",    1.3548E+06,   1.45387E+06,   1.45387E+06
C:/temp/Job-42.odb,Step-1,Increment      1: Step Time =    1.000,"P-42-1",           909,       17.6435,       26.5305,            0.,NA,NA,"",   1.83966E+06,   1.96552E+06,   1.96552E+06
C:/temp/Job-42.odb,Step-1,Increment      1: Step Time =    1.000,"P-42-1",           910,       9.48245,       25.1639,            0.,NA,NA,"",   2.08770E+06,   2.30078E+06,   2.30078E+06
C:/temp/Job-42.odb,Step-1,Increment      1: Step Time =    1.000,"P-42-1",           911,       190.419,       174.906,            0.,NA,NA,"",   1.36711E+06,   1.19150E+06,   1.19150E+06
C:/temp/Job-42.odb,Step-1,Increment      1: Step Time =    1.000,"P-42-1",           912,       181.427,       173.245,            0.,NA,NA,"",   1.71345E+06,   1.62018E+06,   1.62018E+06
C:/temp/Job-42.odb,Step-1,Increment      1: Step Time =    1.000,"P-42-1",           913,       25.7821,       190.388,            0.,NA,NA,"",   5.60008E+06,   5.59865E+06,   5.59865E+06
C:/temp/Job-42.odb,Step-1,Increment      1: Step Time =    1.000,"P-42-1",           914,       27.9289,       180.969,            0.,NA,NA,"",   3.36098E+06,   3.34025E+06,   3.34025E+06
C:/temp/Job-42.odb,Step-1,Increment      1: Step Time =    1.000,"P-42-1",           915,       178.366,       27.9159,            0.,NA,NA,"",   1.97040E+06,   1.88695E+06,   1.88695E+06
C:/temp/Job-42.odb,Step-1,Increment      1: Step Time =    1.000,"P-42-1",           916,       36.8644,       183.246,            0.,NA,NA,"",   3.88505E+06,   3.77341E+06,   3.77341E+06
C:/temp/Job-42.odb,Step-1,Increment      1: Step Time =    1.000,"P-42-1",           917,       23.2952,       160.441,            0.,NA,NA,"",   791.292E+03,  -490.699E+03,  -490.699E+03
C:/temp/Job-42.odb,Step-1,Increment      1: Step Time =    1.000,"P-42-1",           918,       178.545,       39.9357,            0.,NA,NA,"",   2.61124E+06,   2.40907E+06,   2.40907E+06
C:/temp/Job-42.odb,Step-1,Increment      1: Step Time =    1.000,"P-42-1",           919,       30.2645,       172.523,            0.,NA,NA,"",   1.46520E+06,   1.35246E+06,   1.35246E+06
C:/temp/Job-42.odb,Step-1,Increment      1: Step Time =    1.000,"P-42-1",           920,       166.454,       25.6059,            0.,NA,NA,"",   2.60829E+06,   2.57544E+06,   2.57544E+06
C:/temp/Job-42.odb,Step-1,Increment      1: Step Time =    1.000,"P-42-1",           921,       161.191,       35.4542,            0.,NA,NA,"",   3.73631E+06,   3.80182E+06,   3.80182E+06
C:/temp/Job-42.odb,Step-1,Increment      1: Step Time =    1.000,"P-42-1",           922,       38.3840,       162.302,            0.,NA,NA,"",   2.07407E+06,  -2.11382E+06,  -2.11382E+06
C:/temp/Job-42.odb,Step-1,Increment      1: Step Time =    1.000,"P-42-1",           923,       176.720,       174.543,            0.,NA,NA,"",   1.95090E+06,   1.86646E+06,   1.86646E+06
C:/temp/Job-42.odb,Step-1,Increment      1: Step Time =    1.000,"P-42-1",           924,       24.9132,       22.7314,            0.,NA,NA,"",   2.53913E+06,   2.57184E+06,   2.57184E+06
C:/temp/Job-42.odb,Step-1,Increment      1: Step Time =    1.000,"P-42-1",           925,       160.618,       27.4532,            0.,NA,NA,"",   3.25197E+06,   3.29404E+06,   3.29404E+06
C:/temp/Job-42.odb,Step-1,Increment      1: Step Time =    1.000,"P-42-1",           926,       35.5686,       168.555,            0.,NA,NA,"",   1.04712E+06,  -410.721E+03,  -410.721E+03
C:/temp/Job-42.odb,Step-1,Increment      1: Step Time =    1.000,"P-42-1",           927,       185.793,       48.8393,            0.,NA,NA,"",   2.64282E+06,   2.36857E+06,   2.36857E+06
C:/temp/Job-42.odb,Step-1,Increment      1: Step Time =    1.000,"P-42-1",           928,       12.2715,       147.315,            0.,NA,NA,"",   1.27671E+06,  -1.18093E+06,  -1.18093E+06
C:/temp/Job-42.odb,Step-1,Increment      1: Step Time =    1.000,"P-42-1",           929,       176.816,       183.629,            0.,NA,NA,"",   1.46874E+06,   1.33974E+06,   1.33974E+06
C:/temp/Job-42.odb,Step-1,Increment      1: Step Time =    1.000,"P-42-1",           930,       24.7539,       18.8796,            0.,NA,NA,"",   3.44899E+06,   3.47095E+06,   3.47095E+06
C:/temp/Job-42.odb,Step-1,Increment      1: Step Time =    1.000,"P-42-1",           931,       187.364,       44.2739,            0.,NA,NA,"",   2.16681E+06,   1.99749E+06,   1.99749E+06
C:/temp/Job-42.odb,Step-1,Increment      1: Step Time =    1.000,"P-42-1",           932,       12.3503,       155.769,            0.,NA,NA,"",   781.944E+03,  -420.196E+03,  -420.196E+03
C:/temp/Job-42.odb,Step-1,Increment      1: Step Time =    1.000,"P-42-1",           933,       190.840,       49.4953,            0.,NA,NA,"",   2.12840E+06,   2.05307E+06,   2.05307E+06
C:/temp/Job-42.odb,Step-1,Increment      1: Step Time =    1.000,"P-42-1",           934,       8.64656,       150.914,            0.,NA,NA,"",   946.507E+03,  -836.760E+03,  -836.760E+03
C:/temp/Job-42.odb,Step-1,Increment      1: Step Time =    1.000,"P-42-1",           935,       42.2562,       190.703,            0.,NA,NA,"",   5.74078E+06,   5.66018E+06,   5.66018E+06
C:/temp/Job-42.odb,Step-1,Increment      1: Step Time =    1.000,"P-42-1",           936,       157.308,       10.0569,            0.,NA,NA,"",   1.21334E+06,   644.095E+03,   644.095E+03
C:/temp/Job-42.odb,Step-1,Increment      1: Step Time =    1.000,"P-42-1",           937,       16.8231,       176.846,            0.,NA,NA,"",   2.48025E+06,   2.62132E+06,   2.62132E+06
C:/temp/Job-42.odb,Step-1,Increment      1: Step Time =    1.000,"P-42-1",           938,       178.911,       15.4915,            0.,NA,NA,"",   1.38300E+06,   1.25504E+06,   1.25504E+06
C:/temp/Job-42.odb,Step-1,Increment      1: Step Time =    1.000,"P-42-1",           939,       15.3760,       20.5840,            0.,NA,NA,"",   3.02122E+06,   3.17060E+06,   3.17060E+06
C:/temp/Job-42.odb,Step-1,Increment      1: Step Time =    1.000,"P-42-1",           940,       184.561,       179.605,            0.,NA,NA,"",   1.41890E+06,   1.29616E+06,   1.29616E+06
C:/temp/Job-42.odb,Step-1,Increment      1: Step Time =    1.000,"P-42-1",           941,       20.8959,       184.461,            0.,NA,NA,"",   4.20227E+06,   4.24970E+06,   4.24970E+06
C:/temp/Job-42.odb,Step-1,Increment      1: Step Time =    1.000,"P-42-1",           942,       182.315,       23.2452,            0.,NA,NA,"",   1.54943E+06,   1.44176E+06,   1.44176E+06
C:/temp/Job-42.odb,Step-1,Increment      1: Step Time =    1.000,"P-42-1",           943,       24.8404,       175.551,            0.,NA,NA,"",    2.1679E+06,   2.20383E+06,   2.20383E+06
C:/temp/Job-42.odb,Step-1,Increment      1: Step Time =    1.000,"P-42-1",           944,       172.144,       25.2736,            0.,NA,NA,"",   2.19927E+06,   2.12728E+06,   2.12728E+06
C:/temp/Job-42.odb,Step-1,Increment      1: Step Time =    1.000,"P-42-1",           945,       20.0189,       14.7321,            0.,NA,NA,"",   4.39649E+06,   4.44773E+06,   4.44773E+06
C:/temp/Job-42.odb,Step-1,Increment      1: Step Time =    1.000,"P-42-1",           946,       181.867,       184.998,            0.,NA,NA,"",   1.32027E+06,   1.18949E+06,   1.18949E+06
C:/temp/Job-42.odb,Step-1,Increment      1: Step Time =    1.000,"P-42-1",           947,       42.2199,       159.386,            0.,NA,NA,"",   3.50098E+06,  -3.55903E+06,  -3.55903E+06
C:/temp/Job-42.odb,Step-1,Increment      1: Step Time =    1.000,"P-42-1",           948,       153.894,       36.7460,            0.,NA,NA,"",   5.31448E+06,   5.41371E+06,   5.41371E+06
C:/temp/Job-42.odb,Step-1,Increment      1: Step Time =    1.000,"P-42-1",           949,       177.422,       171.334,            0.,NA,NA,"",   2.05306E+06,   1.96659E+06,   1.96659E+06
C:/temp/Job-42.odb,Step-1,Increment      1: Step Time =    1.000,"P-42-1",           950,       177.525,       24.0470,            0.,NA,NA,"",   1.80387E+06,   1.71305E+06,   1.71305E+06
C:/temp/Job-42.odb,Step-1,Increment      1: Step Time =    1.000,"P-42-1",           951,       21.0052,       175.493,            0.,NA,NA,"",   2.20549E+06,   2.30298E+06,   2.30298E+06
C:/temp/Job-42.odb,Step-1,Increment      1: Step Time =    1.000,"P-42-1",           952,       21.4112,       26.7604,            0.,NA,NA,"",   1.73657E+06,   1.81731E+06,   1.81731E+06
C:/temp/Job-42.odb,Step-1,Increment      1: Step Time =    1.000,"P-42-1",           953,       15.2762,       181.885,            0.,NA,NA,"",   3.52558E+06,   3.66865E+06,   3.66865E+06
C:/temp/Job-42.odb,Step-1,Increment      1: Step Time =    1.000,"P-42-1",           954,       184.293,       18.2678,            0.,NA,NA,"",   1.37837E+06,   1.25156E+06,   1.25156E+06
C:/temp/Job-42.odb,Step-1,Increment      1: Step Time =    1.000,"P-42-1",           955,       15.0711,       15.1323,            0.,NA,NA,"",   4.28502E+06,   4.39806E+06,   4.39806E+06
C:/temp/Job-42.odb,Step-1,Increment      1: Step Time =    1.000,"P-42-1",           956,       184.333,       14.6635,            0.,NA,NA,"",   1.27150E+06,   1.14120E+06,   1.14120E+06
C:/temp/Job-42.odb,Step-1,Increment      1: Step Time =    1.000,"P-42-1",           957,       15.3768,       185.425,            0.,NA,NA,"",   4.32761E+06,   4.43498E+06,   4.43498E+06
C:/temp/Job-42.odb,Step-1,Increment      1: Step Time =    1.000,"P-42-1",           958,       185.453,       184.877,            0.,NA,NA,"",   1.27134E+06,   1.13695E+06,   1.13695E+06
C:/temp/Job-42.odb,Step-1,Increment      1: Step Time =    1.000,"P-42-1",           959,       15.0008,       10.0484,            0.,NA,NA,"",   5.39091E+06,   5.44739E+06,   5.44739E+06
C:/temp/Job-42.odb,Step-1,Increment      1: Step Time =    1.000,"P-42-1",           960,       185.043,       189.648,            0.,NA,NA,"",   1.06985E+06,   960.470E+03,   960.470E+03
C:/temp/Job-42.odb,Step-1,Increment      1: Step Time =    1.000,"P-42-1",           961,       25.7489,       29.1303,            0.,NA,NA,"",   1.16542E+06,   1.16190E+06,   1.16190E+06
C:/temp/Job-42.odb,Step-1,Increment      1: Step Time =    1.000,"P-42-1",           962,       10.0539,       15.1508,            0.,NA,NA,"",   4.10035E+06,   4.32013E+06,   4.32013E+06
C:/temp/Job-42.odb,Step-1,Increment      1: Step Time =    1.000,"P-42-1",           963,       184.457,       9.96366,            0.,NA,NA,"",   1.05651E+06,   952.442E+03,   952.442E+03
C:/temp/Job-42.odb,Step-1,Increment      1: Step Time =    1.000,"P-42-1",           964,       15.3864,       190.051,            0.,NA,NA,"",   5.37782E+06,   5.42728E+06,   5.42728E+06
C:/temp/Job-42.odb,Step-1,Increment      1: Step Time =    1.000,"P-42-1",           965,       190.122,       184.817,            0.,NA,NA,"",   1.22530E+06,   1.07445E+06,   1.07445E+06
C:/temp/Job-42.odb,Step-1,Increment      1: Step Time =    1.000,"P-42-1",           966,       20.4018,       19.1035,            0.,NA,NA,"",   3.40338E+06,   3.48245E+06,   3.48245E+06
C:/temp/Job-42.odb,Step-1,Increment      1: Step Time =    1.000,"P-42-1",           967,       189.160,       15.1388,            0.,NA,NA,"",   1.22150E+06,   1.07772E+06,   1.07772E+06
C:/temp/Job-42.odb,Step-1,Increment      1: Step Time =    1.000,"P-42-1",           968,       10.5237,       185.005,            0.,NA,NA,"",   4.14685E+06,   4.35925E+06,   4.35925E+06
C:/temp/Job-42.odb,Step-1,Increment      1: Step Time =    1.000,"P-42-1",           969,       40.1898,       173.510,            0.,NA,NA,"",   1.70399E+06,   528.056E+03,   528.056E+03
C:/temp/Job-42.odb,Step-1,Increment      1: Step Time =    1.000,"P-42-1",           970,       154.954,       25.5685,            0.,NA,NA,"",   3.73955E+06,   3.84103E+06,   3.84103E+06
C:/temp/Job-42.odb,Step-1,Increment      1: Step Time =    1.000,"P-42-1",           971,       24.9139,       9.99097,            0.,NA,NA,"",   5.50127E+06,   5.50705E+06,   5.50705E+06
C:/temp/Job-42.odb,Step-1,Increment      1: Step Time =    1.000,"P-42-1",           972,       10.4995,       174.106,            0.,NA,NA,"",   1.94106E+06,   2.14046E+06,   2.14046E+06
C:/temp/Job-42.odb,Step-1,Increment      1: Step Time =    1.000,"P-42-1",           973,       188.816,       26.2316,            0.,NA,NA,"",   1.42412E+06,   1.27566E+06,   1.27566E+06
C:/temp/Job-42.odb,Step-1,Increment      1: Step Time =    1.000,"P-42-1",           974,       174.188,       189.921,            0.,NA,NA,"",   1.07812E+06,   920.599E+03,   920.599E+03
C:/temp/Job-42.odb,Step-1,Increment      1: Step Time =    1.000,"P-42-1",           975,       17.2101,       148.340,            0.,NA,NA,"",   1.47616E+06,  -1.37931E+06,  -1.37931E+06
C:/temp/Job-42.odb,Step-1,Increment      1: Step Time =    1.000,"P-42-1",           976,       181.649,       51.0903,            0.,NA,NA,"",   3.05018E+06,   2.60602E+06,   2.60602E+06
C:/temp/Job-42.odb,Step-1,Increment      1: Step Time =    1.000,"P-42-1",           977,       150.938,       191.270,            0.,NA,NA,"",   1.21366E+06,   130.017E+03,   130.017E+03
C:/temp/Job-42.odb,Step-1,Increment      1: Step Time =    1.000,"P-42-1",           978,       50.9666,       10.1536,            0.,NA,NA,"",   5.60013E+06,   5.45029E+06,   5.45029E+06
C:/temp/Job-42.odb,Step-1,Increment      1: Step Time =    1.000,"P-42-1",           979,       44.1952,       174.242,            0.,NA,NA,"",   1.84471E+06,   688.249E+03,   688.249E+03
C:/temp/Job-42.odb,Step-1,Increment      1: Step Time =    1.000,"P-42-1",           980,       79.4131,       180.520,            0.,NA,NA,"",   4.23079E+06,   3.91971E+06,   3.91971E+06
C:/temp/Job-42.odb,Step-1,Increment      1: Step Time =    1.000,"P-42-1",           981,       120.266,       19.8322,            0.,NA,NA,"",   10.6219E+06,   10.8310E+06,   10.8310E+06
C:/temp/Job-42.odb,Step-1,Increment      1: Step Time =    1.000,"P-42-1",           982,       189.690,       60.2288,            0.,NA,NA,"",   3.04860E+06,   2.85500E+06,   2.85500E+06
C:/temp/Job-42.odb,Step-1,Increment      1: Step Time =    1.000,"P-42-1",           983,       60.7458,       9.54496,            0.,NA,NA,"",   5.64439E+06,   5.41141E+06,   5.41141E+06
C:/temp/Job-42.odb,Step-1,Increment      1: Step Time =    1.000,"P-42-1",           984,       141.130,       190.635,            0.,NA,NA,"",   1.43271E+06,   278.158E+03,   278.158E+03
C:/temp/Job-42.odb,Step-1,Increment      1: Step Time =    1.000,"P-42-1",           985,       10.4925,       141.008,            0.,NA,NA,"",   1.32312E+06,  -1.28774E+06,  -1.28774E+06
C:/temp/Job-42.odb,Step-1,Increment      1: Step Time =    1.000,"P-42-1",           986,       169.783,       4.57922,            0.,NA,NA,"",   586.212E+03,   116.411E+03,   116.411E+03
C:/temp/Job-42.odb,Step-1,Increment      1: Step Time =    1.000,"P-42-1",           987,       164.801,       4.44489,            0.,NA,NA,"",   744.204E+03,  -346.686E+03,  -346.686E+03
C:/temp/Job-42.odb,Step-1,Increment      1: Step Time =    1.000,"P-42-1",           988,       195.222,       169.991,            0.,NA,NA,"",   1.40467E+06,   1.10082E+06,   1.10082E+06
C:/temp/Job-42.odb,Step-1,Increment      1: Step Time =    1.000,"P-42-1",           989,       195.046,       164.867,            0.,NA,NA,"",   1.39608E+06,   1.16571E+06,   1.16571E+06
C:/temp/Job-42.odb,Step-1,Increment      1: Step Time =    1.000,"P-42-1",           990,       30.3383,       195.435,            0.,NA,NA,"",   6.90317E+06,   6.89186E+06,   6.89186E+06
C:/temp/Job-42.odb,Step-1,Increment      1: Step Time =    1.000,"P-42-1",           991,       35.2419,       195.698,            0.,NA,NA,"",   7.11337E+06,   7.10210E+06,   7.10210E+06
C:/temp/Job-42.odb,Step-1,Increment      1: Step Time =    1.000,"P-42-1",           992,       4.78477,       30.0808,            0.,NA,NA,"",   1.33961E+06,   1.51059E+06,   1.51059E+06
C:/temp/Job-42.odb,Step-1,Increment      1: Step Time =    1.000,"P-42-1",           993,       4.97341,       35.1834,            0.,NA,NA,"",   673.600E+03,   764.489E+03,   764.489E+03
C:/temp/Job-42.odb,Step-1,Increment      1: Step Time =    1.000,"P-42-1",           994,       124.491,       187.395,            0.,NA,NA,"",   3.55050E+06,   3.74824E+06,   3.74824E+06
C:/temp/Job-42.odb,Step-1,Increment      1: Step Time =    1.000,"P-42-1",           995,       130.291,       184.197,            0.,NA,NA,"",   4.71302E+06,   4.94621E+06,   4.94621E+06
C:/temp/Job-42.odb,Step-1,Increment      1: Step Time =    1.000,"P-42-1",           996,       184.524,       78.5021,            0.,NA,NA,"",   2.95152E+06,  -130.519E+03,  -130.519E+03
C:/temp/Job-42.odb,Step-1,Increment      1: Step Time =    1.000,"P-42-1",           997,       99.6856,       186.193,            0.,NA,NA,"",   6.75250E+06,   6.70394E+06,   6.70394E+06
C:/temp/Job-42.odb,Step-1,Increment      1: Step Time =    1.000,"P-42-1",           998,       170.670,       51.2069,            0.,NA,NA,"",   2.89419E+06,   2.67317E+06,   2.67317E+06
C:/temp/Job-42.odb,Step-1,Increment      1: Step Time =    1.000,"P-42-1",           999,       45.9950,       11.0637,            0.,NA,NA,"",   5.36601E+06,   5.23147E+06,   5.23147E+06
C:/temp/Job-42.odb,Step-1,Increment      1: Step Time =    1.000,"P-42-1",          1000,       191.338,       44.7507,            0.,NA,NA,"",   1.78769E+06,   1.71374E+06,   1.71374E+06
C:/temp/Job-42.odb,Step-1,Increment      1: Step Time =    1.000,"P-42-1",          1001,       155.717,       191.479,            0.,NA,NA,"",   1.12765E+06,   133.919E+03,   133.919E+03
C:/temp/Job-42.odb,Step-1,Increment      1: Step Time =    1.000,"P-42-1",          1002,       8.40551,       155.485,            0.,NA,NA,"",   633.847E+03,  -200.038E+03,  -200.038E+03
C:/temp/Job-42.odb,Step-1,Increment      1: Step Time =    1.000,"P-42-1",          1003,       88.4290,       7.71430,            0.,NA,NA,"",   4.53412E+06,   4.04791E+06,   4.04791E+06
C:/temp/Job-42.odb,Step-1,Increment      1: Step Time =    1.000,"P-42-1",          1004,       59.9913,       182.698,            0.,NA,NA,"",   3.86668E+06,   3.29845E+06,   3.29845E+06
C:/temp/Job-42.odb,Step-1,Increment      1: Step Time =    1.000,"P-42-1",          1005,       137.246,       13.2694,            0.,NA,NA,"",   2.46038E+06,   2.57455E+06,   2.57455E+06
C:/temp/Job-42.odb,Step-1,Increment      1: Step Time =    1.000,"P-42-1",          1006,       178.720,       53.9655,            0.,NA,NA,"",   3.13312E+06,   2.59292E+06,   2.59292E+06
C:/temp/Job-42.odb,Step-1,Increment      1: Step Time =    1.000,"P-42-1",          1007,       39.4355,       189.427,            0.,NA,NA,"",   5.49165E+06,   5.42464E+06,   5.42464E+06
C:/temp/Job-42.odb,Step-1,Increment      1: Step Time =    1.000,"P-42-1",          1008,       160.572,       11.1263,            0.,NA,NA,"",   1.26994E+06,   1.02217E+06,   1.02217E+06
C:/temp/Job-42.odb,Step-1,Increment      1: Step Time =    1.000,"P-42-1",          1009,       15.7810,       37.6390,            0.,NA,NA,"",   452.236E+03,   217.534E+03,   217.534E+03
C:/temp/Job-42.odb,Step-1,Increment      1: Step Time =    1.000,"P-42-1",          1010,       184.898,       162.254,            0.,NA,NA,"",   2.00915E+06,   1.86508E+06,   1.86508E+06
C:/temp/Job-42.odb,Step-1,Increment      1: Step Time =    1.000,"P-42-1",          1011,       127.457,       188.213,            0.,NA,NA,"",   2.55059E+06,   2.70782E+06,   2.70782E+06
C:/temp/Job-42.odb,Step-1,Increment      1: Step Time =    1.000,"P-42-1",          1012,       134.447,       182.796,            0.,NA,NA,"",   4.79034E+06,   5.00099E+06,   5.00099E+06
C:/temp/Job-42.odb,Step-1,Increment      1: Step Time =    1.000,"P-42-1",          1013,       66.7854,       186.297,            0.,NA,NA,"",   4.74714E+06,   4.23172E+06,   4.23172E+06
C:/temp/Job-42.odb,Step-1,Increment      1: Step Time =    1.000,"P-42-1",          1014,       187.732,       68.5658,            0.,NA,NA,"",   3.38513E+06,   2.89774E+06,   2.89774E+06
C:/temp/Job-42.odb,Step-1,Increment      1: Step Time =    1.000,"P-42-1",          1015,       186.883,       71.0079,            0.,NA,NA,"",   3.23667E+06,   2.64231E+06,   2.64231E+06
C:/temp/Job-42.odb,Step-1,Increment      1: Step Time =    1.000,"P-42-1",          1016,       42.7496,       187.348,            0.,NA,NA,"",   4.88508E+06,   4.77081E+06,   4.77081E+06
C:/temp/Job-42.odb,Step-1,Increment      1: Step Time =    1.000,"P-42-1",          1017,       167.954,       33.6400,            0.,NA,NA,"",   3.01096E+06,   2.98353E+06,   2.98353E+06
C:/temp/Job-42.odb,Step-1,Increment      1: Step Time =    1.000,"P-42-1",          1018,       13.1692,       76.1555,            0.,NA,NA,"",   1.00990E+06,  -1.05115E+06,  -1.05115E+06
C:/temp/Job-42.odb,Step-1,Increment      1: Step Time =    1.000,"P-42-1",          1019,       157.746,       18.1986,            0.,NA,NA,"",   2.41347E+06,   2.35211E+06,   2.35211E+06
C:/temp/Job-42.odb,Step-1,Increment      1: Step Time =    1.000,"P-42-1",          1020,       186.634,       127.231,            0.,NA,NA,"",   3.21638E+06,   2.52245E+06,   2.52245E+06
C:/temp/Job-42.odb,Step-1,Increment      1: Step Time =    1.000,"P-42-1",          1021,       15.8659,       43.9628,            0.,NA,NA,"",   896.537E+03,  -712.880E+03,  -712.880E+03
C:/temp/Job-42.odb,Step-1,Increment      1: Step Time =    1.000,"P-42-1",          1022,       185.201,       157.221,            0.,NA,NA,"",   2.28974E+06,   2.08278E+06,   2.08278E+06
C:/temp/Job-42.odb,Step-1,Increment      1: Step Time =    1.000,"P-42-1",          1023,       180.491,       181.723,            0.,NA,NA,"",   1.43757E+06,   1.31987E+06,   1.31987E+06
C:/temp/Job-42.odb,Step-1,Increment      1: Step Time =    1.000,"P-42-1",          1024,       180.899,       19.5132,            0.,NA,NA,"",   1.47015E+06,   1.35657E+06,   1.35657E+06
C:/temp/Job-42.odb,Step-1,Increment      1: Step Time =    1.000,"P-42-1",          1025,       18.6974,       180.456,            0.,NA,NA,"",   3.31297E+06,   3.41235E+06,   3.41235E+06
C:/temp/Job-42.odb,Step-1,Increment      1: Step Time =    1.000,"P-42-1",          1026,       13.4845,       151.237,            0.,NA,NA,"",   1.14274E+06,  -1.00622E+06,  -1.00622E+06
C:/temp/Job-42.odb,Step-1,Increment      1: Step Time =    1.000,"P-42-1",          1027,       11.1279,       67.6902,            0.,NA,NA,"",   1.25892E+06,  -1.26808E+06,  -1.26808E+06
C:/temp/Job-42.odb,Step-1,Increment      1: Step Time =    1.000,"P-42-1",          1028,       12.4938,       59.2649,            0.,NA,NA,"",   1.39687E+06,  -1.35610E+06,  -1.35610E+06
C:/temp/Job-42.odb,Step-1,Increment      1: Step Time =    1.000,"P-42-1",          1029,       31.0868,       165.598,            0.,NA,NA,"",   734.369E+03,  -341.913E+03,  -341.913E+03
C:/temp/Job-42.odb,Step-1,Increment      1: Step Time =    1.000,"P-42-1",          1030,       28.0331,       163.504,            0.,NA,NA,"",   733.396E+03,  -302.263E+03,  -302.263E+03
C:/temp/Job-42.odb,Step-1,Increment      1: Step Time =    1.000,"P-42-1",          1031,       114.227,       11.8288,            0.,NA,NA,"",   4.21578E+06,   4.36075E+06,   4.36075E+06
C:/temp/Job-42.odb,Step-1,Increment      1: Step Time =    1.000,"P-42-1",          1032,       156.055,       187.247,            0.,NA,NA,"",   1.59054E+06,   1.42103E+06,   1.42103E+06
C:/temp/Job-42.odb,Step-1,Increment      1: Step Time =    1.000,"P-42-1",          1033,       160.346,       187.054,            0.,NA,NA,"",   1.52555E+06,   1.34629E+06,   1.34629E+06
C:/temp/Job-42.odb,Step-1,Increment      1: Step Time =    1.000,"P-42-1",          1034,       58.5527,       186.129,            0.,NA,NA,"",   4.63151E+06,   4.23482E+06,   4.23482E+06
C:/temp/Job-42.odb,Step-1,Increment      1: Step Time =    1.000,"P-42-1",          1035,       11.7779,       50.9722,            0.,NA,NA,"",   1.19333E+06,  -1.07109E+06,  -1.07109E+06
C:/temp/Job-42.odb,Step-1,Increment      1: Step Time =    1.000,"P-42-1",          1036,       188.879,       142.664,            0.,NA,NA,"",   2.98932E+06,   2.74418E+06,   2.74418E+06
C:/temp/Job-42.odb,Step-1,Increment      1: Step Time =    1.000,"P-42-1",          1037,       184.007,       142.529,            0.,NA,NA,"",   3.21134E+06,   2.64643E+06,   2.64643E+06
C:/temp/Job-42.odb,Step-1,Increment      1: Step Time =    1.000,"P-42-1",          1038,       176.495,       35.8647,            0.,NA,NA,"",   2.49493E+06,   2.37031E+06,   2.37031E+06
C:/temp/Job-42.odb,Step-1,Increment      1: Step Time =    1.000,"P-42-1",          1039,       12.6364,       159.889,            0.,NA,NA,"",   491.857E+03,   173.026E+03,   173.026E+03
C:/temp/Job-42.odb,Step-1,Increment      1: Step Time =    1.000,"P-42-1",          1040,       186.294,       53.8512,            0.,NA,NA,"",   2.94067E+06,   2.59207E+06,   2.59207E+06
C:/temp/Job-42.odb,Step-1,Increment      1: Step Time =    1.000,"P-42-1",          1041,       187.524,       40.3874,            0.,NA,NA,"",   1.89259E+06,   1.76335E+06,   1.76335E+06
C:/temp/Job-42.odb,Step-1,Increment      1: Step Time =    1.000,"P-42-1",          1042,       66.7007,       14.4071,            0.,NA,NA,"",   4.67535E+06,   4.13155E+06,   4.13155E+06
C:/temp/Job-42.odb,Step-1,Increment      1: Step Time =    1.000,"P-42-1",          1043,       174.868,       155.605,            0.,NA,NA,"",   2.93375E+06,   2.69296E+06,   2.69296E+06
C:/temp/Job-42.odb,Step-1,Increment      1: Step Time =    1.000,"P-42-1",          1044,       166.927,       28.7874,            0.,NA,NA,"",   2.80852E+06,   2.78747E+06,   2.78747E+06
C:/temp/Job-42.odb,Step-1,Increment      1: Step Time =    1.000,"P-42-1",          1045,       173.627,       31.2183,            0.,NA,NA,"",   2.44432E+06,   2.36863E+06,   2.36863E+06
C:/temp/Job-42.odb,Step-1,Increment      1: Step Time =    1.000,"P-42-1",          1046,       152.396,       182.946,            0.,NA,NA,"",   2.49513E+06,   2.48751E+06,   2.48751E+06
C:/temp/Job-42.odb,Step-1,Increment      1: Step Time =    1.000,"P-42-1",          1047,       43.9456,       17.9388,            0.,NA,NA,"",   3.51331E+06,   3.25647E+06,   3.25647E+06
C:/temp/Job-42.odb,Step-1,Increment      1: Step Time =    1.000,"P-42-1",          1048,       16.4481,       159.086,            0.,NA,NA,"",   658.815E+03,  -304.594E+03,  -304.594E+03
C:/temp/Job-42.odb,Step-1,Increment      1: Step Time =    1.000,"P-42-1",          1049,       155.987,       178.887,            0.,NA,NA,"",   2.93449E+06,   2.94673E+06,   2.94673E+06
C:/temp/Job-42.odb,Step-1,Increment      1: Step Time =    1.000,"P-42-1",          1050,       163.942,       181.776,            0.,NA,NA,"",   2.06441E+06,   1.97447E+06,   1.97447E+06
C:/temp/Job-42.odb,Step-1,Increment      1: Step Time =    1.000,"P-42-1",          1051,       19.6752,       157.264,            0.,NA,NA,"",   929.686E+03,  -760.527E+03,  -760.527E+03
C:/temp/Job-42.odb,Step-1,Increment      1: Step Time =    1.000,"P-42-1",          1052,       183.608,       39.9840,            0.,NA,NA,"",   2.21414E+06,   2.03894E+06,   2.03894E+06
C:/temp/Job-42.odb,Step-1,Increment      1: Step Time =    1.000,"P-42-1",          1053,       21.1950,       22.8807,            0.,NA,NA,"",   2.52855E+06,   2.61635E+06,   2.61635E+06
C:/temp/Job-42.odb,Step-1,Increment      1: Step Time =    1.000,"P-42-1",          1054,       22.1436,       166.316,            0.,NA,NA,"",   651.575E+03,   647.560E+03,   647.560E+03
C:/temp/Job-42.odb,Step-1,Increment      1: Step Time =    1.000,"P-42-1",          1055,       28.8517,       23.0640,            0.,NA,NA,"",   2.42662E+06,   2.39489E+06,   2.39489E+06
C:/temp/Job-42.odb,Step-1,Increment      1: Step Time =    1.000,"P-42-1",          1056,       175.389,       179.374,            0.,NA,NA,"",   1.71814E+06,   1.61348E+06,   1.61348E+06
C:/temp/Job-42.odb,Step-1,Increment      1: Step Time =    1.000,"P-42-1",          1057,       30.0876,       33.7131,            0.,NA,NA,"",   698.276E+03,  -240.625E+03,  -240.625E+03
C:/temp/Job-42.odb,Step-1,Increment      1: Step Time =    1.000,"P-42-1",          1058,       173.768,       175.176,            0.,NA,NA,"",   2.04791E+06,   1.96405E+06,   1.96405E+06
C:/temp/Job-42.odb,Step-1,Increment      1: Step Time =    1.000,"P-42-1",          1059,       24.8530,       26.2446,            0.,NA,NA,"",   1.79110E+06,   1.81413E+06,   1.81413E+06
C:/temp/Job-42.odb,Step-1,Increment      1: Step Time =    1.000,"P-42-1",          1060,       170.961,       176.596,            0.,NA,NA,"",   2.08467E+06,   2.00493E+06,   2.00493E+06
C:/temp/Job-42.odb,Step-1,Increment      1: Step Time =    1.000,"P-42-1",          1061,       17.8441,       162.306,            0.,NA,NA,"",   487.378E+03,   210.726E+03,   210.726E+03
C:/temp/Job-42.odb,Step-1,Increment      1: Step Time =    1.000,"P-42-1",          1062,       31.2013,       28.6450,            0.,NA,NA,"",   1.25302E+06,   893.638E+03,   893.638E+03
