ODB Name,Step,Frame,Part Instance Name,    Node Label,X,Y,Z,Section Name,Material Name,Section Point,       S-Mises,S-Max. In-Plane Principal (Abs),S-Max. Principal (Abs)
C:/temp/Job-44.odb,Step-1,Increment      1: Step Time =    1.000,"P-44-1",             1,       95.2117,       113.156,            0.,NA,NA,"",   1.91623E+06,   1.99235E+06,   1.99235E+06
C:/temp/Job-44.odb,Step-1,Increment      1: Step Time =    1.000,"P-44-1",             2,       87.8756,          107.,            0.,NA,NA,"",   667.907E+03,   262.613E+03,   262.613E+03
C:/temp/Job-44.odb,Step-1,Increment      1: Step Time =    1.000,"P-44-1",             3,       86.2127,       102.431,            0.,NA,NA,"",   449.577E+03,  -349.858E+03,  -349.858E+03
C:/temp/Job-44.odb,Step-1,Increment      1: Step Time =    1.000,"P-44-1",             4,       87.8756,           93.,            0.,NA,NA,"",   752.261E+03,   439.029E+03,   439.029E+03
C:/temp/Job-44.odb,Step-1,Increment      1: Step Time =    1.000,"P-44-1",             5,       91.0010,       89.2754,            0.,NA,NA,"",   1.29994E+06,   1.30515E+06,   1.30515E+06
C:/temp/Job-44.odb,Step-1,Increment      1: Step Time =    1.000,"P-44-1",             6,          100.,           86.,            0.,NA,NA,"",   1.96899E+06,   2.09779E+06,   2.09779E+06
C:/temp/Job-44.odb,Step-1,Increment      1: Step Time =    1.000,"P-44-1",             7,       104.788,       86.8443,            0.,NA,NA,"",   1.84140E+06,   1.92355E+06,   1.92355E+06
C:/temp/Job-44.odb,Step-1,Increment      1: Step Time =    1.000,"P-44-1",             8,       112.124,           93.,            0.,NA,NA,"",   612.523E+03,   192.770E+03,   192.770E+03
C:/temp/Job-44.odb,Step-1,Increment      1: Step Time =    1.000,"P-44-1",             9,       113.787,       97.5689,            0.,NA,NA,"",   497.994E+03,  -478.184E+03,  -478.184E+03
C:/temp/Job-44.odb,Step-1,Increment      1: Step Time =    1.000,"P-44-1",            10,       112.124,          107.,            0.,NA,NA,"",   706.626E+03,   247.318E+03,   247.318E+03
C:/temp/Job-44.odb,Step-1,Increment      1: Step Time =    1.000,"P-44-1",            11,       108.999,       110.725,            0.,NA,NA,"",   1.27250E+06,   1.28332E+06,   1.28332E+06
C:/temp/Job-44.odb,Step-1,Increment      1: Step Time =    1.000,"P-44-1",            12,          100.,          114.,            0.,NA,NA,"",   2.03162E+06,   2.15538E+06,   2.15538E+06
C:/temp/Job-44.odb,Step-1,Increment      1: Step Time =    1.000,"P-44-1",            13,          190.,            0.,            0.,NA,NA,"",   999.589E+03,   999.586E+03,   999.586E+03
C:/temp/Job-44.odb,Step-1,Increment      1: Step Time =    1.000,"P-44-1",            14,          180.,            0.,            0.,NA,NA,"",   998.851E+03,   998.835E+03,   998.835E+03
C:/temp/Job-44.odb,Step-1,Increment      1: Step Time =    1.000,"P-44-1",            15,          170.,            0.,            0.,NA,NA,"",   997.409E+03,   997.330E+03,   997.330E+03
C:/temp/Job-44.odb,Step-1,Increment      1: Step Time =    1.000,"P-44-1",            16,          160.,            0.,            0.,NA,NA,"",   993.695E+03,   993.594E+03,   993.594E+03
C:/temp/Job-44.odb,Step-1,Increment      1: Step Time =    1.000,"P-44-1",            17,          150.,            0.,            0.,NA,NA,"",   986.031E+03,   985.893E+03,   985.893E+03
C:/temp/Job-44.odb,Step-1,Increment      1: Step Time =    1.000,"P-44-1",            18,          140.,            0.,            0.,NA,NA,"",   973.722E+03,   973.577E+03,   973.577E+03
C:/temp/Job-44.odb,Step-1,Increment      1: Step Time =    1.000,"P-44-1",            19,          130.,            0.,            0.,NA,NA,"",   957.849E+03,   957.794E+03,   957.794E+03
C:/temp/Job-44.odb,Step-1,Increment      1: Step Time =    1.000,"P-44-1",            20,          120.,            0.,            0.,NA,NA,"",   941.030E+03,   941.139E+03,   941.139E+03
C:/temp/Job-44.odb,Step-1,Increment      1: Step Time =    1.000,"P-44-1",            21,          110.,            0.,            0.,NA,NA,"",   927.797E+03,   928.033E+03,   928.033E+03
C:/temp/Job-44.odb,Step-1,Increment      1: Step Time =    1.000,"P-44-1",            22,          100.,            0.,            0.,NA,NA,"",   922.003E+03,   922.291E+03,   922.291E+03
C:/temp/Job-44.odb,Step-1,Increment      1: Step Time =    1.000,"P-44-1",            23,           90.,            0.,            0.,NA,NA,"",   925.127E+03,   925.362E+03,   925.362E+03
C:/temp/Job-44.odb,Step-1,Increment      1: Step Time =    1.000,"P-44-1",            24,           80.,            0.,            0.,NA,NA,"",   936.146E+03,   936.251E+03,   936.251E+03
C:/temp/Job-44.odb,Step-1,Increment      1: Step Time =    1.000,"P-44-1",            25,           70.,            0.,            0.,NA,NA,"",   952.137E+03,   952.107E+03,   952.107E+03
C:/temp/Job-44.odb,Step-1,Increment      1: Step Time =    1.000,"P-44-1",            26,           60.,            0.,            0.,NA,NA,"",   969.798E+03,   969.691E+03,   969.691E+03
C:/temp/Job-44.odb,Step-1,Increment      1: Step Time =    1.000,"P-44-1",            27,           50.,            0.,            0.,NA,NA,"",   987.754E+03,   987.619E+03,   987.619E+03
C:/temp/Job-44.odb,Step-1,Increment      1: Step Time =    1.000,"P-44-1",            28,           40.,            0.,            0.,NA,NA,"",   1.00765E+06,   1.00764E+06,   1.00764E+06
C:/temp/Job-44.odb,Step-1,Increment      1: Step Time =    1.000,"P-44-1",            29,           30.,            0.,            0.,NA,NA,"",   1.03680E+06,   1.03713E+06,   1.03713E+06
C:/temp/Job-44.odb,Step-1,Increment      1: Step Time =    1.000,"P-44-1",            30,           20.,            0.,            0.,NA,NA,"",   1.09319E+06,   1.09409E+06,   1.09409E+06
C:/temp/Job-44.odb,Step-1,Increment      1: Step Time =    1.000,"P-44-1",            31,           10.,            0.,            0.,NA,NA,"",   1.23562E+06,   1.23855E+06,   1.23855E+06
C:/temp/Job-44.odb,Step-1,Increment      1: Step Time =    1.000,"P-44-1",            32,          200.,            0.,            0.,NA,NA,"",   999.976E+03,   999.948E+03,   999.948E+03
C:/temp/Job-44.odb,Step-1,Increment      1: Step Time =    1.000,"P-44-1",            33,            0.,            0.,            0.,NA,NA,"",   1.58218E+06,   1.65651E+06,   1.65651E+06
C:/temp/Job-44.odb,Step-1,Increment      1: Step Time =    1.000,"P-44-1",            34,          200.,          190.,            0.,NA,NA,"",   1.00018E+06,   1.00001E+06,   1.00001E+06
C:/temp/Job-44.odb,Step-1,Increment      1: Step Time =    1.000,"P-44-1",            35,          200.,          180.,            0.,NA,NA,"",   1.00033E+06,   1.00012E+06,   1.00012E+06
C:/temp/Job-44.odb,Step-1,Increment      1: Step Time =    1.000,"P-44-1",            36,          200.,          170.,            0.,NA,NA,"",   999.486E+03,   1.00032E+06,   1.00032E+06
C:/temp/Job-44.odb,Step-1,Increment      1: Step Time =    1.000,"P-44-1",            37,          200.,          160.,            0.,NA,NA,"",   996.438E+03,   1.00032E+06,   1.00032E+06
C:/temp/Job-44.odb,Step-1,Increment      1: Step Time =    1.000,"P-44-1",            38,          200.,          150.,            0.,NA,NA,"",   990.588E+03,   1.00028E+06,   1.00028E+06
C:/temp/Job-44.odb,Step-1,Increment      1: Step Time =    1.000,"P-44-1",            39,          200.,          140.,            0.,NA,NA,"",   981.902E+03,   1.00027E+06,   1.00027E+06
C:/temp/Job-44.odb,Step-1,Increment      1: Step Time =    1.000,"P-44-1",            40,          200.,          130.,            0.,NA,NA,"",   971.718E+03,   1.00014E+06,   1.00014E+06
C:/temp/Job-44.odb,Step-1,Increment      1: Step Time =    1.000,"P-44-1",            41,          200.,          120.,            0.,NA,NA,"",   961.748E+03,   999.716E+03,   999.716E+03
C:/temp/Job-44.odb,Step-1,Increment      1: Step Time =    1.000,"P-44-1",            42,          200.,          110.,            0.,NA,NA,"",   954.457E+03,   999.286E+03,   999.286E+03
C:/temp/Job-44.odb,Step-1,Increment      1: Step Time =    1.000,"P-44-1",            43,          200.,          100.,            0.,NA,NA,"",   951.845E+03,   999.218E+03,   999.218E+03
C:/temp/Job-44.odb,Step-1,Increment      1: Step Time =    1.000,"P-44-1",            44,          200.,           90.,            0.,NA,NA,"",   954.631E+03,   999.387E+03,   999.387E+03
C:/temp/Job-44.odb,Step-1,Increment      1: Step Time =    1.000,"P-44-1",            45,          200.,           80.,            0.,NA,NA,"",   962.024E+03,   999.732E+03,   999.732E+03
C:/temp/Job-44.odb,Step-1,Increment      1: Step Time =    1.000,"P-44-1",            46,          200.,           70.,            0.,NA,NA,"",   972.066E+03,   1.00008E+06,   1.00008E+06
C:/temp/Job-44.odb,Step-1,Increment      1: Step Time =    1.000,"P-44-1",            47,          200.,           60.,            0.,NA,NA,"",   982.327E+03,   1.00027E+06,   1.00027E+06
C:/temp/Job-44.odb,Step-1,Increment      1: Step Time =    1.000,"P-44-1",            48,          200.,           50.,            0.,NA,NA,"",   990.855E+03,   1.00033E+06,   1.00033E+06
C:/temp/Job-44.odb,Step-1,Increment      1: Step Time =    1.000,"P-44-1",            49,          200.,           40.,            0.,NA,NA,"",   996.636E+03,   1.00031E+06,   1.00031E+06
C:/temp/Job-44.odb,Step-1,Increment      1: Step Time =    1.000,"P-44-1",            50,          200.,           30.,            0.,NA,NA,"",   999.605E+03,   1.00026E+06,   1.00026E+06
C:/temp/Job-44.odb,Step-1,Increment      1: Step Time =    1.000,"P-44-1",            51,          200.,           20.,            0.,NA,NA,"",   1.00040E+06,   1.00014E+06,   1.00014E+06
C:/temp/Job-44.odb,Step-1,Increment      1: Step Time =    1.000,"P-44-1",            52,          200.,           10.,            0.,NA,NA,"",   1.00021E+06,   1.00002E+06,   1.00002E+06
C:/temp/Job-44.odb,Step-1,Increment      1: Step Time =    1.000,"P-44-1",            53,          200.,          200.,            0.,NA,NA,"",   999.973E+03,   999.947E+03,   999.947E+03
C:/temp/Job-44.odb,Step-1,Increment      1: Step Time =    1.000,"P-44-1",            54,           10.,          200.,            0.,NA,NA,"",   1.23625E+06,   1.23894E+06,   1.23894E+06
C:/temp/Job-44.odb,Step-1,Increment      1: Step Time =    1.000,"P-44-1",            55,           20.,          200.,            0.,NA,NA,"",   1.09432E+06,   1.09520E+06,   1.09520E+06
C:/temp/Job-44.odb,Step-1,Increment      1: Step Time =    1.000,"P-44-1",            56,           30.,          200.,            0.,NA,NA,"",   1.03731E+06,   1.03772E+06,   1.03772E+06
C:/temp/Job-44.odb,Step-1,Increment      1: Step Time =    1.000,"P-44-1",            57,           40.,          200.,            0.,NA,NA,"",   1.00753E+06,   1.00766E+06,   1.00766E+06
C:/temp/Job-44.odb,Step-1,Increment      1: Step Time =    1.000,"P-44-1",            58,           50.,          200.,            0.,NA,NA,"",   986.486E+03,   986.489E+03,   986.489E+03
C:/temp/Job-44.odb,Step-1,Increment      1: Step Time =    1.000,"P-44-1",            59,           60.,          200.,            0.,NA,NA,"",   968.106E+03,   968.042E+03,   968.042E+03
C:/temp/Job-44.odb,Step-1,Increment      1: Step Time =    1.000,"P-44-1",            60,           70.,          200.,            0.,NA,NA,"",   950.831E+03,   950.820E+03,   950.820E+03
C:/temp/Job-44.odb,Step-1,Increment      1: Step Time =    1.000,"P-44-1",            61,           80.,          200.,            0.,NA,NA,"",   935.417E+03,   935.518E+03,   935.518E+03
C:/temp/Job-44.odb,Step-1,Increment      1: Step Time =    1.000,"P-44-1",            62,           90.,          200.,            0.,NA,NA,"",   924.922E+03,   925.144E+03,   925.144E+03
C:/temp/Job-44.odb,Step-1,Increment      1: Step Time =    1.000,"P-44-1",            63,          100.,          200.,            0.,NA,NA,"",   922.215E+03,   922.498E+03,   922.498E+03
C:/temp/Job-44.odb,Step-1,Increment      1: Step Time =    1.000,"P-44-1",            64,          110.,          200.,            0.,NA,NA,"",   928.334E+03,   928.573E+03,   928.573E+03
C:/temp/Job-44.odb,Step-1,Increment      1: Step Time =    1.000,"P-44-1",            65,          120.,          200.,            0.,NA,NA,"",   941.680E+03,   941.785E+03,   941.785E+03
C:/temp/Job-44.odb,Step-1,Increment      1: Step Time =    1.000,"P-44-1",            66,          130.,          200.,            0.,NA,NA,"",   958.472E+03,   958.437E+03,   958.437E+03
C:/temp/Job-44.odb,Step-1,Increment      1: Step Time =    1.000,"P-44-1",            67,          140.,          200.,            0.,NA,NA,"",   974.507E+03,   974.378E+03,   974.378E+03
C:/temp/Job-44.odb,Step-1,Increment      1: Step Time =    1.000,"P-44-1",            68,          150.,          200.,            0.,NA,NA,"",   986.823E+03,   986.662E+03,   986.662E+03
C:/temp/Job-44.odb,Step-1,Increment      1: Step Time =    1.000,"P-44-1",            69,          160.,          200.,            0.,NA,NA,"",   994.395E+03,   994.261E+03,   994.261E+03
C:/temp/Job-44.odb,Step-1,Increment      1: Step Time =    1.000,"P-44-1",            70,          170.,          200.,            0.,NA,NA,"",   997.891E+03,   997.819E+03,   997.819E+03
C:/temp/Job-44.odb,Step-1,Increment      1: Step Time =    1.000,"P-44-1",            71,          180.,          200.,            0.,NA,NA,"",   999.080E+03,   999.059E+03,   999.059E+03
C:/temp/Job-44.odb,Step-1,Increment      1: Step Time =    1.000,"P-44-1",            72,          190.,          200.,            0.,NA,NA,"",   999.641E+03,   999.637E+03,   999.637E+03
C:/temp/Job-44.odb,Step-1,Increment      1: Step Time =    1.000,"P-44-1",            73,            0.,          200.,            0.,NA,NA,"",   1.58144E+06,   1.65719E+06,   1.65719E+06
C:/temp/Job-44.odb,Step-1,Increment      1: Step Time =    1.000,"P-44-1",            74,            0.,           10.,            0.,NA,NA,"",   1.14853E+06,   1.24882E+06,   1.24882E+06
C:/temp/Job-44.odb,Step-1,Increment      1: Step Time =    1.000,"P-44-1",            75,            0.,           20.,            0.,NA,NA,"",   1.00281E+06,   1.10631E+06,   1.10631E+06
C:/temp/Job-44.odb,Step-1,Increment      1: Step Time =    1.000,"P-44-1",            76,            0.,           30.,            0.,NA,NA,"",   932.734E+03,   1.03672E+06,   1.03672E+06
C:/temp/Job-44.odb,Step-1,Increment      1: Step Time =    1.000,"P-44-1",            77,            0.,           40.,            0.,NA,NA,"",   887.674E+03,   992.357E+03,   992.357E+03
C:/temp/Job-44.odb,Step-1,Increment      1: Step Time =    1.000,"P-44-1",            78,            0.,           50.,            0.,NA,NA,"",   853.782E+03,   958.107E+03,   958.107E+03
C:/temp/Job-44.odb,Step-1,Increment      1: Step Time =    1.000,"P-44-1",            79,            0.,           60.,            0.,NA,NA,"",   825.430E+03,   928.788E+03,   928.788E+03
C:/temp/Job-44.odb,Step-1,Increment      1: Step Time =    1.000,"P-44-1",            80,            0.,           70.,            0.,NA,NA,"",   801.980E+03,   903.694E+03,   903.694E+03
C:/temp/Job-44.odb,Step-1,Increment      1: Step Time =    1.000,"P-44-1",            81,            0.,           80.,            0.,NA,NA,"",   783.264E+03,   883.413E+03,   883.413E+03
C:/temp/Job-44.odb,Step-1,Increment      1: Step Time =    1.000,"P-44-1",            82,            0.,           90.,            0.,NA,NA,"",   770.798E+03,   869.879E+03,   869.879E+03
C:/temp/Job-44.odb,Step-1,Increment      1: Step Time =    1.000,"P-44-1",            83,            0.,          100.,            0.,NA,NA,"",   766.439E+03,   865.149E+03,   865.149E+03
C:/temp/Job-44.odb,Step-1,Increment      1: Step Time =    1.000,"P-44-1",            84,            0.,          110.,            0.,NA,NA,"",   771.142E+03,    870.25E+03,    870.25E+03
C:/temp/Job-44.odb,Step-1,Increment      1: Step Time =    1.000,"P-44-1",            85,            0.,          120.,            0.,NA,NA,"",    784.13E+03,   884.303E+03,   884.303E+03
C:/temp/Job-44.odb,Step-1,Increment      1: Step Time =    1.000,"P-44-1",            86,            0.,          130.,            0.,NA,NA,"",   803.480E+03,   905.154E+03,   905.154E+03
C:/temp/Job-44.odb,Step-1,Increment      1: Step Time =    1.000,"P-44-1",            87,            0.,          140.,            0.,NA,NA,"",   827.192E+03,   930.399E+03,   930.399E+03
C:/temp/Job-44.odb,Step-1,Increment      1: Step Time =    1.000,"P-44-1",            88,            0.,          150.,            0.,NA,NA,"",   854.585E+03,   959.048E+03,   959.048E+03
C:/temp/Job-44.odb,Step-1,Increment      1: Step Time =    1.000,"P-44-1",            89,            0.,          160.,            0.,NA,NA,"",   887.118E+03,   992.342E+03,   992.342E+03
C:/temp/Job-44.odb,Step-1,Increment      1: Step Time =    1.000,"P-44-1",            90,            0.,          170.,            0.,NA,NA,"",   931.085E+03,   1.03594E+06,   1.03594E+06
C:/temp/Job-44.odb,Step-1,Increment      1: Step Time =    1.000,"P-44-1",            91,            0.,          180.,            0.,NA,NA,"",   1.00116E+06,   1.10498E+06,   1.10498E+06
C:/temp/Job-44.odb,Step-1,Increment      1: Step Time =    1.000,"P-44-1",            92,            0.,          190.,            0.,NA,NA,"",   1.14693E+06,   1.24763E+06,   1.24763E+06
C:/temp/Job-44.odb,Step-1,Increment      1: Step Time =    1.000,"P-44-1",            93,       190.123,       84.6313,            0.,NA,NA,"",   965.121E+03,   996.227E+03,   996.227E+03
C:/temp/Job-44.odb,Step-1,Increment      1: Step Time =    1.000,"P-44-1",            94,       189.302,       114.891,            0.,NA,NA,"",   964.637E+03,   995.245E+03,   995.245E+03
C:/temp/Job-44.odb,Step-1,Increment      1: Step Time =    1.000,"P-44-1",            95,       178.841,       111.223,            0.,NA,NA,"",   959.285E+03,   980.477E+03,   980.477E+03
C:/temp/Job-44.odb,Step-1,Increment      1: Step Time =    1.000,"P-44-1",            96,       167.830,       117.657,            0.,NA,NA,"",   968.330E+03,   976.342E+03,   976.342E+03
C:/temp/Job-44.odb,Step-1,Increment      1: Step Time =    1.000,"P-44-1",            97,       157.538,       118.649,            0.,NA,NA,"",   972.804E+03,   968.916E+03,   968.916E+03
C:/temp/Job-44.odb,Step-1,Increment      1: Step Time =    1.000,"P-44-1",            98,       146.784,       117.504,            0.,NA,NA,"",   975.364E+03,   956.594E+03,   956.594E+03
C:/temp/Job-44.odb,Step-1,Increment      1: Step Time =    1.000,"P-44-1",            99,       136.380,       118.029,            0.,NA,NA,"",   1.04259E+06,   990.532E+03,   990.532E+03
C:/temp/Job-44.odb,Step-1,Increment      1: Step Time =    1.000,"P-44-1",           100,       126.471,       120.887,            0.,NA,NA,"",   1.21100E+06,   1.12115E+06,   1.12115E+06
C:/temp/Job-44.odb,Step-1,Increment      1: Step Time =    1.000,"P-44-1",           101,       114.874,       117.704,            0.,NA,NA,"",   1.38867E+06,   1.30666E+06,   1.30666E+06
C:/temp/Job-44.odb,Step-1,Increment      1: Step Time =    1.000,"P-44-1",           102,       81.5295,       115.965,            0.,NA,NA,"",   1.25390E+06,   1.13344E+06,   1.13344E+06
C:/temp/Job-44.odb,Step-1,Increment      1: Step Time =    1.000,"P-44-1",           103,       74.3138,       114.606,            0.,NA,NA,"",   1.04861E+06,   972.182E+03,   972.182E+03
C:/temp/Job-44.odb,Step-1,Increment      1: Step Time =    1.000,"P-44-1",           104,       62.2397,       114.385,            0.,NA,NA,"",   888.413E+03,   892.855E+03,   892.855E+03
C:/temp/Job-44.odb,Step-1,Increment      1: Step Time =    1.000,"P-44-1",           105,       55.3824,       115.811,            0.,NA,NA,"",   877.596E+03,   903.641E+03,   903.641E+03
C:/temp/Job-44.odb,Step-1,Increment      1: Step Time =    1.000,"P-44-1",           106,       41.1356,       114.675,            0.,NA,NA,"",   837.544E+03,   896.165E+03,   896.165E+03
C:/temp/Job-44.odb,Step-1,Increment      1: Step Time =    1.000,"P-44-1",           107,       32.4976,       116.520,            0.,NA,NA,"",   835.931E+03,   905.479E+03,   905.479E+03
C:/temp/Job-44.odb,Step-1,Increment      1: Step Time =    1.000,"P-44-1",           108,       19.3406,       116.398,            0.,NA,NA,"",   810.542E+03,   896.616E+03,   896.616E+03
C:/temp/Job-44.odb,Step-1,Increment      1: Step Time =    1.000,"P-44-1",           109,       9.80002,       115.389,            0.,NA,NA,"",   789.902E+03,   884.710E+03,   884.710E+03
C:/temp/Job-44.odb,Step-1,Increment      1: Step Time =    1.000,"P-44-1",           110,       10.0992,       105.302,            0.,NA,NA,"",   777.940E+03,   872.720E+03,   872.720E+03
C:/temp/Job-44.odb,Step-1,Increment      1: Step Time =    1.000,"P-44-1",           111,       20.8548,       106.097,            0.,NA,NA,"",   792.764E+03,   879.050E+03,   879.050E+03
C:/temp/Job-44.odb,Step-1,Increment      1: Step Time =    1.000,"P-44-1",           112,       32.8190,       106.090,            0.,NA,NA,"",   801.274E+03,   875.281E+03,   875.281E+03
C:/temp/Job-44.odb,Step-1,Increment      1: Step Time =    1.000,"P-44-1",           113,       41.3890,       105.198,            0.,NA,NA,"",   792.102E+03,   857.274E+03,   857.274E+03
C:/temp/Job-44.odb,Step-1,Increment      1: Step Time =    1.000,"P-44-1",           114,       53.3118,       104.184,            0.,NA,NA,"",   752.704E+03,   805.605E+03,   805.605E+03
C:/temp/Job-44.odb,Step-1,Increment      1: Step Time =    1.000,"P-44-1",           115,       62.5031,       104.598,            0.,NA,NA,"",   688.576E+03,   728.946E+03,   728.946E+03
C:/temp/Job-44.odb,Step-1,Increment      1: Step Time =    1.000,"P-44-1",           116,       73.3186,       103.981,            0.,NA,NA,"",   523.072E+03,   519.179E+03,   519.179E+03
C:/temp/Job-44.odb,Step-1,Increment      1: Step Time =    1.000,"P-44-1",           117,       81.6682,       106.882,            0.,NA,NA,"",   699.109E+03,   266.902E+03,   266.902E+03
C:/temp/Job-44.odb,Step-1,Increment      1: Step Time =    1.000,"P-44-1",           118,       118.277,       106.500,            0.,NA,NA,"",   689.837E+03,   199.329E+03,   199.329E+03
C:/temp/Job-44.odb,Step-1,Increment      1: Step Time =    1.000,"P-44-1",           119,       128.698,       103.954,            0.,NA,NA,"",   602.878E+03,   586.831E+03,   586.831E+03
C:/temp/Job-44.odb,Step-1,Increment      1: Step Time =    1.000,"P-44-1",           120,       140.887,       106.126,            0.,NA,NA,"",   795.481E+03,   800.383E+03,   800.383E+03
C:/temp/Job-44.odb,Step-1,Increment      1: Step Time =    1.000,"P-44-1",           121,       150.762,       106.834,            0.,NA,NA,"",   872.391E+03,   881.263E+03,   881.263E+03
C:/temp/Job-44.odb,Step-1,Increment      1: Step Time =    1.000,"P-44-1",           122,       158.116,       103.158,            0.,NA,NA,"",   897.204E+03,   910.944E+03,   910.944E+03
C:/temp/Job-44.odb,Step-1,Increment      1: Step Time =    1.000,"P-44-1",           123,       166.057,       101.781,            0.,NA,NA,"",   925.259E+03,   941.693E+03,   941.693E+03
C:/temp/Job-44.odb,Step-1,Increment      1: Step Time =    1.000,"P-44-1",           124,       180.319,       103.188,            0.,NA,NA,"",   954.470E+03,   979.177E+03,   979.177E+03
C:/temp/Job-44.odb,Step-1,Increment      1: Step Time =    1.000,"P-44-1",           125,       189.944,       104.581,            0.,NA,NA,"",   958.546E+03,   993.591E+03,   993.591E+03
C:/temp/Job-44.odb,Step-1,Increment      1: Step Time =    1.000,"P-44-1",           126,       127.432,       92.7505,            0.,NA,NA,"",   767.710E+03,   713.020E+03,   713.020E+03
C:/temp/Job-44.odb,Step-1,Increment      1: Step Time =    1.000,"P-44-1",           127,       138.945,       93.7549,            0.,NA,NA,"",   795.876E+03,   796.438E+03,   796.438E+03
C:/temp/Job-44.odb,Step-1,Increment      1: Step Time =    1.000,"P-44-1",           128,       146.733,       91.9585,            0.,NA,NA,"",   870.987E+03,   873.793E+03,   873.793E+03
C:/temp/Job-44.odb,Step-1,Increment      1: Step Time =    1.000,"P-44-1",           129,       158.868,       94.3640,            0.,NA,NA,"",   907.534E+03,   919.586E+03,   919.586E+03
C:/temp/Job-44.odb,Step-1,Increment      1: Step Time =    1.000,"P-44-1",           130,       169.994,       92.6594,            0.,NA,NA,"",   943.354E+03,   959.625E+03,   959.625E+03
C:/temp/Job-44.odb,Step-1,Increment      1: Step Time =    1.000,"P-44-1",           131,       180.355,       93.7813,            0.,NA,NA,"",   956.647E+03,   980.734E+03,   980.734E+03
C:/temp/Job-44.odb,Step-1,Increment      1: Step Time =    1.000,"P-44-1",           132,       190.135,       94.5792,            0.,NA,NA,"",   959.024E+03,   994.099E+03,   994.099E+03
C:/temp/Job-44.odb,Step-1,Increment      1: Step Time =    1.000,"P-44-1",           133,       10.1561,       85.2102,            0.,NA,NA,"",   789.106E+03,   883.680E+03,   883.680E+03
C:/temp/Job-44.odb,Step-1,Increment      1: Step Time =    1.000,"P-44-1",           134,       19.8294,       87.8803,            0.,NA,NA,"",   801.667E+03,   887.909E+03,   887.909E+03
C:/temp/Job-44.odb,Step-1,Increment      1: Step Time =    1.000,"P-44-1",           135,       29.4850,       83.1311,            0.,NA,NA,"",   829.813E+03,   903.781E+03,   903.781E+03
C:/temp/Job-44.odb,Step-1,Increment      1: Step Time =    1.000,"P-44-1",           136,       43.6438,       84.3216,            0.,NA,NA,"",   848.061E+03,   900.938E+03,   900.938E+03
C:/temp/Job-44.odb,Step-1,Increment      1: Step Time =    1.000,"P-44-1",           137,       54.1244,       82.7604,            0.,NA,NA,"",   886.734E+03,   914.697E+03,   914.697E+03
C:/temp/Job-44.odb,Step-1,Increment      1: Step Time =    1.000,"P-44-1",           138,       65.0071,       82.4509,            0.,NA,NA,"",   966.090E+03,   949.924E+03,   949.924E+03
C:/temp/Job-44.odb,Step-1,Increment      1: Step Time =    1.000,"P-44-1",           139,       75.1958,       82.4856,            0.,NA,NA,"",   1.14472E+06,   1.06145E+06,   1.06145E+06
C:/temp/Job-44.odb,Step-1,Increment      1: Step Time =    1.000,"P-44-1",           140,       85.7733,       82.9494,            0.,NA,NA,"",   1.40042E+06,   1.32814E+06,   1.32814E+06
C:/temp/Job-44.odb,Step-1,Increment      1: Step Time =    1.000,"P-44-1",           141,       119.063,       87.1423,            0.,NA,NA,"",   1.15575E+06,   985.245E+03,   985.245E+03
C:/temp/Job-44.odb,Step-1,Increment      1: Step Time =    1.000,"P-44-1",           142,       127.104,       84.5104,            0.,NA,NA,"",   1.09537E+06,   998.288E+03,   998.288E+03
C:/temp/Job-44.odb,Step-1,Increment      1: Step Time =    1.000,"P-44-1",           143,       137.826,       84.2897,            0.,NA,NA,"",   975.870E+03,   938.882E+03,   938.882E+03
C:/temp/Job-44.odb,Step-1,Increment      1: Step Time =    1.000,"P-44-1",           144,       145.236,       83.7627,            0.,NA,NA,"",   963.637E+03,   944.657E+03,   944.657E+03
C:/temp/Job-44.odb,Step-1,Increment      1: Step Time =    1.000,"P-44-1",           145,       155.441,       85.5386,            0.,NA,NA,"",   944.483E+03,   944.321E+03,   944.321E+03
C:/temp/Job-44.odb,Step-1,Increment      1: Step Time =    1.000,"P-44-1",           146,       170.585,       83.3047,            0.,NA,NA,"",   967.150E+03,   977.852E+03,   977.852E+03
C:/temp/Job-44.odb,Step-1,Increment      1: Step Time =    1.000,"P-44-1",           147,       180.301,       84.0970,            0.,NA,NA,"",   967.861E+03,   987.924E+03,   987.924E+03
C:/temp/Job-44.odb,Step-1,Increment      1: Step Time =    1.000,"P-44-1",           148,       81.0966,       92.3863,            0.,NA,NA,"",   743.103E+03,   452.396E+03,   452.396E+03
C:/temp/Job-44.odb,Step-1,Increment      1: Step Time =    1.000,"P-44-1",           149,       75.1425,       96.1091,            0.,NA,NA,"",   528.103E+03,   511.275E+03,   511.275E+03
C:/temp/Job-44.odb,Step-1,Increment      1: Step Time =    1.000,"P-44-1",           150,       62.2731,       95.4333,            0.,NA,NA,"",   702.203E+03,   740.321E+03,   740.321E+03
C:/temp/Job-44.odb,Step-1,Increment      1: Step Time =    1.000,"P-44-1",           151,       53.0090,       96.1666,            0.,NA,NA,"",   755.998E+03,   808.865E+03,   808.865E+03
C:/temp/Job-44.odb,Step-1,Increment      1: Step Time =    1.000,"P-44-1",           152,       40.6133,       96.3682,            0.,NA,NA,"",   792.486E+03,   858.995E+03,   858.995E+03
C:/temp/Job-44.odb,Step-1,Increment      1: Step Time =    1.000,"P-44-1",           153,       31.7485,       94.5325,            0.,NA,NA,"",   800.817E+03,   876.185E+03,   876.185E+03
C:/temp/Job-44.odb,Step-1,Increment      1: Step Time =    1.000,"P-44-1",           154,       20.3714,       95.4026,            0.,NA,NA,"",   790.468E+03,   877.269E+03,   877.269E+03
C:/temp/Job-44.odb,Step-1,Increment      1: Step Time =    1.000,"P-44-1",           155,       10.0955,       95.3136,            0.,NA,NA,"",   777.210E+03,   871.960E+03,   871.960E+03
C:/temp/Job-44.odb,Step-1,Increment      1: Step Time =    1.000,"P-44-1",           156,       189.545,       10.3475,            0.,NA,NA,"",   1.00018E+06,   1.00015E+06,   1.00015E+06
C:/temp/Job-44.odb,Step-1,Increment      1: Step Time =    1.000,"P-44-1",           157,       179.334,       10.0969,            0.,NA,NA,"",   1.00059E+06,   1.00041E+06,   1.00041E+06
C:/temp/Job-44.odb,Step-1,Increment      1: Step Time =    1.000,"P-44-1",           158,       169.096,       9.82245,            0.,NA,NA,"",   1.00069E+06,   1.00008E+06,   1.00008E+06
C:/temp/Job-44.odb,Step-1,Increment      1: Step Time =    1.000,"P-44-1",           159,       158.616,       10.2561,            0.,NA,NA,"",   999.341E+03,   998.256E+03,   998.256E+03
C:/temp/Job-44.odb,Step-1,Increment      1: Step Time =    1.000,"P-44-1",           160,       149.591,       9.11544,            0.,NA,NA,"",   993.947E+03,   992.877E+03,   992.877E+03
C:/temp/Job-44.odb,Step-1,Increment      1: Step Time =    1.000,"P-44-1",           161,       135.068,       9.71635,            0.,NA,NA,"",   982.556E+03,   981.817E+03,   981.817E+03
C:/temp/Job-44.odb,Step-1,Increment      1: Step Time =    1.000,"P-44-1",           162,       124.912,       9.67998,            0.,NA,NA,"",   970.969E+03,   971.174E+03,   971.174E+03
C:/temp/Job-44.odb,Step-1,Increment      1: Step Time =    1.000,"P-44-1",           163,       114.818,       9.71729,            0.,NA,NA,"",   960.031E+03,   961.399E+03,   961.399E+03
C:/temp/Job-44.odb,Step-1,Increment      1: Step Time =    1.000,"P-44-1",           164,       104.864,       9.87783,            0.,NA,NA,"",   954.015E+03,   956.184E+03,   956.184E+03
C:/temp/Job-44.odb,Step-1,Increment      1: Step Time =    1.000,"P-44-1",           165,       94.8653,       9.95998,            0.,NA,NA,"",   954.548E+03,   956.835E+03,   956.835E+03
C:/temp/Job-44.odb,Step-1,Increment      1: Step Time =    1.000,"P-44-1",           166,       84.7400,       9.91724,            0.,NA,NA,"",   961.916E+03,   963.595E+03,   963.595E+03
C:/temp/Job-44.odb,Step-1,Increment      1: Step Time =    1.000,"P-44-1",           167,       74.7320,       9.84823,            0.,NA,NA,"",   974.681E+03,   975.390E+03,   975.390E+03
C:/temp/Job-44.odb,Step-1,Increment      1: Step Time =    1.000,"P-44-1",           168,       64.8720,       9.82612,            0.,NA,NA,"",   990.174E+03,   990.253E+03,   990.253E+03
C:/temp/Job-44.odb,Step-1,Increment      1: Step Time =    1.000,"P-44-1",           169,       50.2884,       9.70849,            0.,NA,NA,"",   1.01566E+06,   1.01609E+06,   1.01609E+06
C:/temp/Job-44.odb,Step-1,Increment      1: Step Time =    1.000,"P-44-1",           170,       40.6062,       9.49017,            0.,NA,NA,"",   1.03643E+06,   1.03816E+06,   1.03816E+06
C:/temp/Job-44.odb,Step-1,Increment      1: Step Time =    1.000,"P-44-1",           171,       30.7626,       9.48151,            0.,NA,NA,"",   1.06752E+06,   1.07254E+06,   1.07254E+06
C:/temp/Job-44.odb,Step-1,Increment      1: Step Time =    1.000,"P-44-1",           172,       20.6965,       9.79819,            0.,NA,NA,"",   1.12102E+06,   1.13326E+06,   1.13326E+06
C:/temp/Job-44.odb,Step-1,Increment      1: Step Time =    1.000,"P-44-1",           173,       10.5493,       10.0911,            0.,NA,NA,"",   1.20132E+06,   1.24050E+06,   1.24050E+06
C:/temp/Job-44.odb,Step-1,Increment      1: Step Time =    1.000,"P-44-1",           174,       189.243,       20.9092,            0.,NA,NA,"",   1.00113E+06,   1.00132E+06,   1.00132E+06
C:/temp/Job-44.odb,Step-1,Increment      1: Step Time =    1.000,"P-44-1",           175,       176.101,       23.6048,            0.,NA,NA,"",   1.00738E+06,   1.00624E+06,   1.00624E+06
C:/temp/Job-44.odb,Step-1,Increment      1: Step Time =    1.000,"P-44-1",           176,       167.809,       23.6153,            0.,NA,NA,"",   1.01287E+06,   1.00996E+06,   1.00996E+06
C:/temp/Job-44.odb,Step-1,Increment      1: Step Time =    1.000,"P-44-1",           177,       158.191,       19.5505,            0.,NA,NA,"",   1.01148E+06,   1.00817E+06,   1.00817E+06
C:/temp/Job-44.odb,Step-1,Increment      1: Step Time =    1.000,"P-44-1",           178,       144.742,       20.4682,            0.,NA,NA,"",   1.01354E+06,   1.00959E+06,   1.00959E+06
C:/temp/Job-44.odb,Step-1,Increment      1: Step Time =    1.000,"P-44-1",           179,       135.413,       20.2695,            0.,NA,NA,"",   1.00940E+06,   1.00683E+06,   1.00683E+06
C:/temp/Job-44.odb,Step-1,Increment      1: Step Time =    1.000,"P-44-1",           180,       124.417,       18.8073,            0.,NA,NA,"",   996.462E+03,   997.253E+03,   997.253E+03
C:/temp/Job-44.odb,Step-1,Increment      1: Step Time =    1.000,"P-44-1",           181,       114.608,       19.0548,            0.,NA,NA,"",   987.576E+03,   991.951E+03,   991.951E+03
C:/temp/Job-44.odb,Step-1,Increment      1: Step Time =    1.000,"P-44-1",           182,       104.745,       19.7620,            0.,NA,NA,"",   983.239E+03,   990.478E+03,   990.478E+03
C:/temp/Job-44.odb,Step-1,Increment      1: Step Time =    1.000,"P-44-1",           183,       94.6716,       19.8800,            0.,NA,NA,"",   985.353E+03,   992.937E+03,   992.937E+03
C:/temp/Job-44.odb,Step-1,Increment      1: Step Time =    1.000,"P-44-1",           184,       84.3636,       19.7205,            0.,NA,NA,"",   995.270E+03,   1.00073E+06,   1.00073E+06
C:/temp/Job-44.odb,Step-1,Increment      1: Step Time =    1.000,"P-44-1",           185,       74.4085,       19.8153,            0.,NA,NA,"",   1.01002E+06,   1.01254E+06,   1.01254E+06
C:/temp/Job-44.odb,Step-1,Increment      1: Step Time =    1.000,"P-44-1",           186,       64.6505,       19.8482,            0.,NA,NA,"",   1.02534E+06,   1.02607E+06,   1.02607E+06
C:/temp/Job-44.odb,Step-1,Increment      1: Step Time =    1.000,"P-44-1",           187,       50.2198,       19.5367,            0.,NA,NA,"",   1.04440E+06,   1.04688E+06,   1.04688E+06
C:/temp/Job-44.odb,Step-1,Increment      1: Step Time =    1.000,"P-44-1",           188,       40.5902,       18.5179,            0.,NA,NA,"",   1.05812E+06,   1.06434E+06,   1.06434E+06
C:/temp/Job-44.odb,Step-1,Increment      1: Step Time =    1.000,"P-44-1",           189,       31.8149,       17.8611,            0.,NA,NA,"",   1.07412E+06,   1.08730E+06,   1.08730E+06
C:/temp/Job-44.odb,Step-1,Increment      1: Step Time =    1.000,"P-44-1",           190,       21.4216,       19.9938,            0.,NA,NA,"",   1.08298E+06,   1.11802E+06,   1.11802E+06
C:/temp/Job-44.odb,Step-1,Increment      1: Step Time =    1.000,"P-44-1",           191,       12.5232,       20.9645,            0.,NA,NA,"",   1.05499E+06,   1.12065E+06,   1.12065E+06
C:/temp/Job-44.odb,Step-1,Increment      1: Step Time =    1.000,"P-44-1",           192,       190.260,       31.1054,            0.,NA,NA,"",   1.00096E+06,   1.00222E+06,   1.00222E+06
C:/temp/Job-44.odb,Step-1,Increment      1: Step Time =    1.000,"P-44-1",           193,       181.406,       32.7495,            0.,NA,NA,"",   1.00730E+06,   1.00722E+06,   1.00722E+06
C:/temp/Job-44.odb,Step-1,Increment      1: Step Time =    1.000,"P-44-1",           194,       169.071,       34.0384,            0.,NA,NA,"",   1.02136E+06,   1.01704E+06,   1.01704E+06
C:/temp/Job-44.odb,Step-1,Increment      1: Step Time =    1.000,"P-44-1",           195,       157.925,       29.6423,            0.,NA,NA,"",   1.02848E+06,   1.02169E+06,   1.02169E+06
C:/temp/Job-44.odb,Step-1,Increment      1: Step Time =    1.000,"P-44-1",           196,       142.695,       32.0515,            0.,NA,NA,"",   1.04427E+06,   1.03541E+06,   1.03541E+06
C:/temp/Job-44.odb,Step-1,Increment      1: Step Time =    1.000,"P-44-1",           197,       135.328,       32.4147,            0.,NA,NA,"",   1.04543E+06,   1.03866E+06,   1.03866E+06
C:/temp/Job-44.odb,Step-1,Increment      1: Step Time =    1.000,"P-44-1",           198,       128.075,       32.7432,            0.,NA,NA,"",   1.04060E+06,   1.03847E+06,   1.03847E+06
C:/temp/Job-44.odb,Step-1,Increment      1: Step Time =    1.000,"P-44-1",           199,       114.860,       27.6472,            0.,NA,NA,"",   1.01009E+06,   1.01775E+06,   1.01775E+06
C:/temp/Job-44.odb,Step-1,Increment      1: Step Time =    1.000,"P-44-1",           200,       105.398,       30.1094,            0.,NA,NA,"",   1.00559E+06,   1.02059E+06,   1.02059E+06
C:/temp/Job-44.odb,Step-1,Increment      1: Step Time =    1.000,"P-44-1",           201,       93.9072,       29.3774,            0.,NA,NA,"",   1.00687E+06,   1.02179E+06,   1.02179E+06
C:/temp/Job-44.odb,Step-1,Increment      1: Step Time =    1.000,"P-44-1",           202,       84.1983,       28.9300,            0.,NA,NA,"",   1.01920E+06,   1.02978E+06,   1.02978E+06
C:/temp/Job-44.odb,Step-1,Increment      1: Step Time =    1.000,"P-44-1",           203,       73.9375,       30.7092,            0.,NA,NA,"",   1.04279E+06,   1.04773E+06,   1.04773E+06
C:/temp/Job-44.odb,Step-1,Increment      1: Step Time =    1.000,"P-44-1",           204,       64.6779,       29.4838,            0.,NA,NA,"",   1.05163E+06,   1.05326E+06,   1.05326E+06
C:/temp/Job-44.odb,Step-1,Increment      1: Step Time =    1.000,"P-44-1",           205,       54.1440,       31.2113,            0.,NA,NA,"",   1.06059E+06,   1.06464E+06,   1.06464E+06
C:/temp/Job-44.odb,Step-1,Increment      1: Step Time =    1.000,"P-44-1",           206,       44.5699,       28.1880,            0.,NA,NA,"",   1.05880E+06,   1.06866E+06,   1.06866E+06
C:/temp/Job-44.odb,Step-1,Increment      1: Step Time =    1.000,"P-44-1",           207,       32.5943,       29.6102,            0.,NA,NA,"",   1.04888E+06,   1.07649E+06,   1.07649E+06
C:/temp/Job-44.odb,Step-1,Increment      1: Step Time =    1.000,"P-44-1",           208,       23.8977,       29.1732,            0.,NA,NA,"",   1.03720E+06,   1.08206E+06,   1.08206E+06
C:/temp/Job-44.odb,Step-1,Increment      1: Step Time =    1.000,"P-44-1",           209,       10.7652,       31.4237,            0.,NA,NA,"",   970.230E+03,   1.05463E+06,   1.05463E+06
C:/temp/Job-44.odb,Step-1,Increment      1: Step Time =    1.000,"P-44-1",           210,       190.422,       40.7635,            0.,NA,NA,"",   999.153E+03,   1.00289E+06,   1.00289E+06
C:/temp/Job-44.odb,Step-1,Increment      1: Step Time =    1.000,"P-44-1",           211,       181.177,       41.2903,            0.,NA,NA,"",   1.00822E+06,   1.00919E+06,   1.00919E+06
C:/temp/Job-44.odb,Step-1,Increment      1: Step Time =    1.000,"P-44-1",           212,       172.269,       40.8191,            0.,NA,NA,"",   1.02099E+06,   1.01748E+06,   1.01748E+06
C:/temp/Job-44.odb,Step-1,Increment      1: Step Time =    1.000,"P-44-1",           213,       157.549,       40.3512,            0.,NA,NA,"",   1.04583E+06,   1.03472E+06,   1.03472E+06
C:/temp/Job-44.odb,Step-1,Increment      1: Step Time =    1.000,"P-44-1",           214,       147.199,       40.6968,            0.,NA,NA,"",   1.06329E+06,   1.04890E+06,   1.04890E+06
C:/temp/Job-44.odb,Step-1,Increment      1: Step Time =    1.000,"P-44-1",           215,       137.751,       41.8054,            0.,NA,NA,"",   1.07611E+06,   1.06211E+06,   1.06211E+06
C:/temp/Job-44.odb,Step-1,Increment      1: Step Time =    1.000,"P-44-1",           216,       126.810,       41.2285,            0.,NA,NA,"",   1.06841E+06,   1.06495E+06,   1.06495E+06
C:/temp/Job-44.odb,Step-1,Increment      1: Step Time =    1.000,"P-44-1",           217,       117.265,       39.6956,            0.,NA,NA,"",   1.04514E+06,   1.05589E+06,   1.05589E+06
C:/temp/Job-44.odb,Step-1,Increment      1: Step Time =    1.000,"P-44-1",           218,       106.357,       41.9329,            0.,NA,NA,"",   1.02651E+06,   1.05373E+06,   1.05373E+06
C:/temp/Job-44.odb,Step-1,Increment      1: Step Time =    1.000,"P-44-1",           219,       96.9733,       37.6111,            0.,NA,NA,"",   1.01719E+06,   1.04159E+06,   1.04159E+06
C:/temp/Job-44.odb,Step-1,Increment      1: Step Time =    1.000,"P-44-1",           220,       84.0726,       41.1076,            0.,NA,NA,"",   1.04935E+06,   1.06760E+06,   1.06760E+06
C:/temp/Job-44.odb,Step-1,Increment      1: Step Time =    1.000,"P-44-1",           221,       75.0344,       42.4756,            0.,NA,NA,"",   1.07605E+06,   1.08277E+06,   1.08277E+06
C:/temp/Job-44.odb,Step-1,Increment      1: Step Time =    1.000,"P-44-1",           222,       66.3165,       42.0498,            0.,NA,NA,"",   1.08274E+06,   1.08373E+06,   1.08373E+06
C:/temp/Job-44.odb,Step-1,Increment      1: Step Time =    1.000,"P-44-1",           223,       52.5245,       40.3398,            0.,NA,NA,"",   1.06555E+06,   1.07297E+06,   1.07297E+06
C:/temp/Job-44.odb,Step-1,Increment      1: Step Time =    1.000,"P-44-1",           224,       34.1227,       41.8664,            0.,NA,NA,"",   1.01713E+06,   1.05334E+06,   1.05334E+06
C:/temp/Job-44.odb,Step-1,Increment      1: Step Time =    1.000,"P-44-1",           225,       21.2530,       40.0273,            0.,NA,NA,"",   977.804E+03,   1.04109E+06,   1.04109E+06
C:/temp/Job-44.odb,Step-1,Increment      1: Step Time =    1.000,"P-44-1",           226,       11.8903,       42.4207,            0.,NA,NA,"",   924.011E+03,   1.01060E+06,   1.01060E+06
C:/temp/Job-44.odb,Step-1,Increment      1: Step Time =    1.000,"P-44-1",           227,       190.298,       50.4057,            0.,NA,NA,"",   995.198E+03,   1.00314E+06,   1.00314E+06
C:/temp/Job-44.odb,Step-1,Increment      1: Step Time =    1.000,"P-44-1",           228,       180.603,       50.6277,            0.,NA,NA,"",   1.00737E+06,   1.01023E+06,   1.01023E+06
C:/temp/Job-44.odb,Step-1,Increment      1: Step Time =    1.000,"P-44-1",           229,       170.777,       55.4513,            0.,NA,NA,"",   1.02383E+06,   1.01997E+06,   1.01997E+06
C:/temp/Job-44.odb,Step-1,Increment      1: Step Time =    1.000,"P-44-1",           230,       153.472,       49.5583,            0.,NA,NA,"",   1.06792E+06,   1.05018E+06,   1.05018E+06
C:/temp/Job-44.odb,Step-1,Increment      1: Step Time =    1.000,"P-44-1",           231,       147.927,       50.1487,            0.,NA,NA,"",   1.08141E+06,   1.06051E+06,   1.06051E+06
C:/temp/Job-44.odb,Step-1,Increment      1: Step Time =    1.000,"P-44-1",           232,       137.770,       52.8321,            0.,NA,NA,"",   1.11107E+06,   1.08637E+06,   1.08637E+06
C:/temp/Job-44.odb,Step-1,Increment      1: Step Time =    1.000,"P-44-1",           233,       124.192,       51.3700,            0.,NA,NA,"",   1.11113E+06,   1.10468E+06,   1.10468E+06
C:/temp/Job-44.odb,Step-1,Increment      1: Step Time =    1.000,"P-44-1",           234,       114.667,       48.3021,            0.,NA,NA,"",   1.06539E+06,   1.08412E+06,   1.08412E+06
C:/temp/Job-44.odb,Step-1,Increment      1: Step Time =    1.000,"P-44-1",           235,       104.935,       51.8914,            0.,NA,NA,"",   1.04161E+06,   1.08579E+06,   1.08579E+06
C:/temp/Job-44.odb,Step-1,Increment      1: Step Time =    1.000,"P-44-1",           236,       96.0945,       51.2649,            0.,NA,NA,"",   1.03869E+06,   1.08407E+06,   1.08407E+06
C:/temp/Job-44.odb,Step-1,Increment      1: Step Time =    1.000,"P-44-1",           237,       86.5807,       54.5254,            0.,NA,NA,"",   1.08595E+06,   1.11696E+06,   1.11696E+06
C:/temp/Job-44.odb,Step-1,Increment      1: Step Time =    1.000,"P-44-1",           238,       73.5972,       51.2811,            0.,NA,NA,"",   1.11068E+06,   1.11184E+06,   1.11184E+06
C:/temp/Job-44.odb,Step-1,Increment      1: Step Time =    1.000,"P-44-1",           239,       63.7549,       53.3167,            0.,NA,NA,"",   1.10175E+06,   1.09805E+06,   1.09805E+06
C:/temp/Job-44.odb,Step-1,Increment      1: Step Time =    1.000,"P-44-1",           240,       52.8927,       50.2928,            0.,NA,NA,"",   1.06277E+06,   1.07170E+06,   1.07170E+06
C:/temp/Job-44.odb,Step-1,Increment      1: Step Time =    1.000,"P-44-1",           241,       40.0253,       51.5163,            0.,NA,NA,"",   1.00981E+06,   1.04137E+06,   1.04137E+06
C:/temp/Job-44.odb,Step-1,Increment      1: Step Time =    1.000,"P-44-1",           242,       30.3470,       51.1144,            0.,NA,NA,"",   967.690E+03,   1.02014E+06,   1.02014E+06
C:/temp/Job-44.odb,Step-1,Increment      1: Step Time =    1.000,"P-44-1",           243,       22.7396,       53.4002,            0.,NA,NA,"",   927.203E+03,   996.749E+03,   996.749E+03
C:/temp/Job-44.odb,Step-1,Increment      1: Step Time =    1.000,"P-44-1",           244,       9.15516,       51.8760,            0.,NA,NA,"",   876.246E+03,   970.387E+03,   970.387E+03
C:/temp/Job-44.odb,Step-1,Increment      1: Step Time =    1.000,"P-44-1",           245,       190.170,       64.9235,            0.,NA,NA,"",   984.364E+03,   1.00168E+06,   1.00168E+06
C:/temp/Job-44.odb,Step-1,Increment      1: Step Time =    1.000,"P-44-1",           246,       180.230,       64.8441,            0.,NA,NA,"",   996.930E+03,   1.00554E+06,   1.00554E+06
C:/temp/Job-44.odb,Step-1,Increment      1: Step Time =    1.000,"P-44-1",           247,       170.318,       64.8641,            0.,NA,NA,"",   1.01346E+06,   1.01223E+06,   1.01223E+06
C:/temp/Job-44.odb,Step-1,Increment      1: Step Time =    1.000,"P-44-1",           248,       159.383,       64.9411,            0.,NA,NA,"",   1.04036E+06,   1.02616E+06,   1.02616E+06
C:/temp/Job-44.odb,Step-1,Increment      1: Step Time =    1.000,"P-44-1",           249,       148.252,       65.5690,            0.,NA,NA,"",   1.08251E+06,   1.05270E+06,   1.05270E+06
C:/temp/Job-44.odb,Step-1,Increment      1: Step Time =    1.000,"P-44-1",           250,       139.616,       63.6161,            0.,NA,NA,"",   1.12845E+06,   1.08967E+06,   1.08967E+06
C:/temp/Job-44.odb,Step-1,Increment      1: Step Time =    1.000,"P-44-1",           251,       125.446,       60.2761,            0.,NA,NA,"",   1.16365E+06,   1.13896E+06,   1.13896E+06
C:/temp/Job-44.odb,Step-1,Increment      1: Step Time =    1.000,"P-44-1",           252,       116.793,       62.2879,            0.,NA,NA,"",   1.16315E+06,   1.16768E+06,   1.16768E+06
C:/temp/Job-44.odb,Step-1,Increment      1: Step Time =    1.000,"P-44-1",           253,       104.068,       61.4781,            0.,NA,NA,"",   1.06800E+06,   1.13534E+06,   1.13534E+06
C:/temp/Job-44.odb,Step-1,Increment      1: Step Time =    1.000,"P-44-1",           254,       95.1497,       60.8331,            0.,NA,NA,"",   1.06749E+06,   1.13389E+06,   1.13389E+06
C:/temp/Job-44.odb,Step-1,Increment      1: Step Time =    1.000,"P-44-1",           255,       85.1765,       63.2480,            0.,NA,NA,"",   1.16325E+06,   1.18391E+06,   1.18391E+06
C:/temp/Job-44.odb,Step-1,Increment      1: Step Time =    1.000,"P-44-1",           256,       76.2753,       60.9395,            0.,NA,NA,"",   1.15732E+06,   1.15059E+06,   1.15059E+06
C:/temp/Job-44.odb,Step-1,Increment      1: Step Time =    1.000,"P-44-1",           257,       63.0067,       63.0978,            0.,NA,NA,"",   1.10381E+06,   1.09387E+06,   1.09387E+06
C:/temp/Job-44.odb,Step-1,Increment      1: Step Time =    1.000,"P-44-1",           258,       50.0196,       63.3438,            0.,NA,NA,"",   1.01814E+06,   1.03512E+06,   1.03512E+06
C:/temp/Job-44.odb,Step-1,Increment      1: Step Time =    1.000,"P-44-1",           259,       42.1494,       63.9176,            0.,NA,NA,"",   971.305E+03,   1.00690E+06,   1.00690E+06
C:/temp/Job-44.odb,Step-1,Increment      1: Step Time =    1.000,"P-44-1",           260,       32.5552,       60.9450,            0.,NA,NA,"",   938.356E+03,   992.621E+03,   992.621E+03
C:/temp/Job-44.odb,Step-1,Increment      1: Step Time =    1.000,"P-44-1",           261,       20.7225,       62.6937,            0.,NA,NA,"",   883.985E+03,   961.567E+03,   961.567E+03
C:/temp/Job-44.odb,Step-1,Increment      1: Step Time =    1.000,"P-44-1",           262,       8.58286,       65.8137,            0.,NA,NA,"",   831.151E+03,   926.833E+03,   926.833E+03
C:/temp/Job-44.odb,Step-1,Increment      1: Step Time =    1.000,"P-44-1",           263,       190.135,       74.7124,            0.,NA,NA,"",   974.598E+03,   999.203E+03,   999.203E+03
C:/temp/Job-44.odb,Step-1,Increment      1: Step Time =    1.000,"P-44-1",           264,       180.250,       74.3709,            0.,NA,NA,"",   983.578E+03,   997.764E+03,   997.764E+03
C:/temp/Job-44.odb,Step-1,Increment      1: Step Time =    1.000,"P-44-1",           265,       170.449,       74.1011,            0.,NA,NA,"",   993.105E+03,   997.225E+03,   997.225E+03
C:/temp/Job-44.odb,Step-1,Increment      1: Step Time =    1.000,"P-44-1",           266,       160.524,       74.3720,            0.,NA,NA,"",   1.00591E+06,    998.87E+03,    998.87E+03
C:/temp/Job-44.odb,Step-1,Increment      1: Step Time =    1.000,"P-44-1",           267,       146.012,       73.1622,            0.,NA,NA,"",   1.05978E+06,   1.02768E+06,   1.02768E+06
C:/temp/Job-44.odb,Step-1,Increment      1: Step Time =    1.000,"P-44-1",           268,       136.072,       72.8929,            0.,NA,NA,"",   1.13925E+06,   1.08403E+06,   1.08403E+06
C:/temp/Job-44.odb,Step-1,Increment      1: Step Time =    1.000,"P-44-1",           269,       124.428,       73.7839,            0.,NA,NA,"",   1.25546E+06,   1.18838E+06,   1.18838E+06
C:/temp/Job-44.odb,Step-1,Increment      1: Step Time =    1.000,"P-44-1",           270,       117.340,       75.3744,            0.,NA,NA,"",   1.31309E+06,   1.27157E+06,   1.27157E+06
C:/temp/Job-44.odb,Step-1,Increment      1: Step Time =    1.000,"P-44-1",           271,       105.226,       72.8757,            0.,NA,NA,"",    1.1972E+06,   1.29053E+06,   1.29053E+06
C:/temp/Job-44.odb,Step-1,Increment      1: Step Time =    1.000,"P-44-1",           272,       89.5749,       73.2893,            0.,NA,NA,"",   1.26426E+06,   1.30318E+06,   1.30318E+06
C:/temp/Job-44.odb,Step-1,Increment      1: Step Time =    1.000,"P-44-1",           273,       83.8570,       72.6145,            0.,NA,NA,"",   1.26103E+06,   1.25123E+06,   1.25123E+06
C:/temp/Job-44.odb,Step-1,Increment      1: Step Time =    1.000,"P-44-1",           274,       73.5924,       73.9996,            0.,NA,NA,"",   1.20048E+06,   1.15192E+06,   1.15192E+06
C:/temp/Job-44.odb,Step-1,Increment      1: Step Time =    1.000,"P-44-1",           275,       63.6210,       73.3139,            0.,NA,NA,"",   1.07362E+06,   1.05467E+06,   1.05467E+06
C:/temp/Job-44.odb,Step-1,Increment      1: Step Time =    1.000,"P-44-1",           276,       54.5088,       73.8608,            0.,NA,NA,"",   985.982E+03,   997.938E+03,   997.938E+03
C:/temp/Job-44.odb,Step-1,Increment      1: Step Time =    1.000,"P-44-1",           277,       40.2469,       75.2159,            0.,NA,NA,"",   899.252E+03,   948.967E+03,   948.967E+03
C:/temp/Job-44.odb,Step-1,Increment      1: Step Time =    1.000,"P-44-1",           278,       29.5891,       72.3638,            0.,NA,NA,"",   876.001E+03,   943.528E+03,   943.528E+03
C:/temp/Job-44.odb,Step-1,Increment      1: Step Time =    1.000,"P-44-1",           279,       18.6756,       74.6654,            0.,NA,NA,"",   833.294E+03,   918.189E+03,   918.189E+03
C:/temp/Job-44.odb,Step-1,Increment      1: Step Time =    1.000,"P-44-1",           280,       9.28546,       75.2981,            0.,NA,NA,"",   807.945E+03,   903.061E+03,   903.061E+03
C:/temp/Job-44.odb,Step-1,Increment      1: Step Time =    1.000,"P-44-1",           281,       189.862,       125.192,            0.,NA,NA,"",   974.592E+03,   999.099E+03,   999.099E+03
C:/temp/Job-44.odb,Step-1,Increment      1: Step Time =    1.000,"P-44-1",           282,       179.794,       125.786,            0.,NA,NA,"",   983.980E+03,   997.732E+03,   997.732E+03
C:/temp/Job-44.odb,Step-1,Increment      1: Step Time =    1.000,"P-44-1",           283,       170.341,       126.174,            0.,NA,NA,"",   993.828E+03,   997.704E+03,   997.704E+03
C:/temp/Job-44.odb,Step-1,Increment      1: Step Time =    1.000,"P-44-1",           284,       156.648,       128.007,            0.,NA,NA,"",   1.02649E+06,   1.01156E+06,   1.01156E+06
C:/temp/Job-44.odb,Step-1,Increment      1: Step Time =    1.000,"P-44-1",           285,       148.060,       127.548,            0.,NA,NA,"",   1.05802E+06,   1.02890E+06,   1.02890E+06
C:/temp/Job-44.odb,Step-1,Increment      1: Step Time =    1.000,"P-44-1",           286,       137.119,       125.237,            0.,NA,NA,"",   1.11318E+06,   1.06022E+06,   1.06022E+06
C:/temp/Job-44.odb,Step-1,Increment      1: Step Time =    1.000,"P-44-1",           287,       127.572,       128.037,            0.,NA,NA,"",   1.21327E+06,   1.15050E+06,   1.15050E+06
C:/temp/Job-44.odb,Step-1,Increment      1: Step Time =    1.000,"P-44-1",           288,       114.024,       129.135,            0.,NA,NA,"",   1.24717E+06,   1.25177E+06,   1.25177E+06
C:/temp/Job-44.odb,Step-1,Increment      1: Step Time =    1.000,"P-44-1",           289,       108.551,       126.712,            0.,NA,NA,"",   1.24105E+06,   1.30156E+06,   1.30156E+06
C:/temp/Job-44.odb,Step-1,Increment      1: Step Time =    1.000,"P-44-1",           290,       95.2528,       128.485,            0.,NA,NA,"",   1.18650E+06,   1.28148E+06,   1.28148E+06
C:/temp/Job-44.odb,Step-1,Increment      1: Step Time =    1.000,"P-44-1",           291,       83.9391,       127.345,            0.,NA,NA,"",   1.26203E+06,   1.25683E+06,   1.25683E+06
C:/temp/Job-44.odb,Step-1,Increment      1: Step Time =    1.000,"P-44-1",           292,       75.4258,       125.991,            0.,NA,NA,"",   1.21433E+06,   1.16908E+06,   1.16908E+06
C:/temp/Job-44.odb,Step-1,Increment      1: Step Time =    1.000,"P-44-1",           293,       64.6648,       126.394,            0.,NA,NA,"",   1.08372E+06,   1.06360E+06,   1.06360E+06
C:/temp/Job-44.odb,Step-1,Increment      1: Step Time =    1.000,"P-44-1",           294,       53.7950,       125.387,            0.,NA,NA,"",   979.175E+03,   993.631E+03,   993.631E+03
C:/temp/Job-44.odb,Step-1,Increment      1: Step Time =    1.000,"P-44-1",           295,       42.6866,       125.584,            0.,NA,NA,"",   917.682E+03,   960.970E+03,   960.970E+03
C:/temp/Job-44.odb,Step-1,Increment      1: Step Time =    1.000,"P-44-1",           296,       32.1768,       124.360,            0.,NA,NA,"",   869.923E+03,   934.999E+03,   934.999E+03
C:/temp/Job-44.odb,Step-1,Increment      1: Step Time =    1.000,"P-44-1",           297,       19.0051,       126.111,            0.,NA,NA,"",   838.533E+03,   922.376E+03,   922.376E+03
C:/temp/Job-44.odb,Step-1,Increment      1: Step Time =    1.000,"P-44-1",           298,       9.51762,       125.376,            0.,NA,NA,"",   811.127E+03,   905.941E+03,   905.941E+03
C:/temp/Job-44.odb,Step-1,Increment      1: Step Time =    1.000,"P-44-1",           299,       190.438,       135.144,            0.,NA,NA,"",   983.946E+03,   1.00166E+06,   1.00166E+06
C:/temp/Job-44.odb,Step-1,Increment      1: Step Time =    1.000,"P-44-1",           300,       180.479,       135.596,            0.,NA,NA,"",   996.800E+03,   1.00559E+06,   1.00559E+06
C:/temp/Job-44.odb,Step-1,Increment      1: Step Time =    1.000,"P-44-1",           301,       170.745,       134.843,            0.,NA,NA,"",   1.01183E+06,   1.01119E+06,   1.01119E+06
C:/temp/Job-44.odb,Step-1,Increment      1: Step Time =    1.000,"P-44-1",           302,       156.830,       137.228,            0.,NA,NA,"",   1.05314E+06,   1.03531E+06,   1.03531E+06
C:/temp/Job-44.odb,Step-1,Increment      1: Step Time =    1.000,"P-44-1",           303,       146.616,       136.189,            0.,NA,NA,"",   1.09161E+06,   1.06045E+06,   1.06045E+06
C:/temp/Job-44.odb,Step-1,Increment      1: Step Time =    1.000,"P-44-1",           304,       138.935,       139.701,            0.,NA,NA,"",   1.12549E+06,   1.09048E+06,   1.09048E+06
C:/temp/Job-44.odb,Step-1,Increment      1: Step Time =    1.000,"P-44-1",           305,       127.737,       136.183,            0.,NA,NA,"",   1.18169E+06,   1.14325E+06,   1.14325E+06
C:/temp/Job-44.odb,Step-1,Increment      1: Step Time =    1.000,"P-44-1",           306,       113.237,       139.659,            0.,NA,NA,"",   1.12511E+06,   1.15171E+06,   1.15171E+06
C:/temp/Job-44.odb,Step-1,Increment      1: Step Time =    1.000,"P-44-1",           307,       104.155,       138.895,            0.,NA,NA,"",   1.06675E+06,   1.13398E+06,   1.13398E+06
C:/temp/Job-44.odb,Step-1,Increment      1: Step Time =    1.000,"P-44-1",           308,       94.7707,       138.563,            0.,NA,NA,"",   1.07578E+06,   1.14074E+06,   1.14074E+06
C:/temp/Job-44.odb,Step-1,Increment      1: Step Time =    1.000,"P-44-1",           309,       84.9386,       138.944,            0.,NA,NA,"",   1.13378E+06,   1.15883E+06,   1.15883E+06
C:/temp/Job-44.odb,Step-1,Increment      1: Step Time =    1.000,"P-44-1",           310,       73.0629,       137.245,            0.,NA,NA,"",   1.16083E+06,   1.14586E+06,   1.14586E+06
C:/temp/Job-44.odb,Step-1,Increment      1: Step Time =    1.000,"P-44-1",           311,       63.1009,       137.296,            0.,NA,NA,"",   1.10280E+06,   1.09352E+06,   1.09352E+06
C:/temp/Job-44.odb,Step-1,Increment      1: Step Time =    1.000,"P-44-1",           312,       55.4222,       137.094,            0.,NA,NA,"",   1.05385E+06,   1.05892E+06,   1.05892E+06
C:/temp/Job-44.odb,Step-1,Increment      1: Step Time =    1.000,"P-44-1",           313,       41.6003,       135.139,            0.,NA,NA,"",   967.381E+03,   1.00453E+06,   1.00453E+06
C:/temp/Job-44.odb,Step-1,Increment      1: Step Time =    1.000,"P-44-1",           314,       31.1812,       135.115,            0.,NA,NA,"",   919.139E+03,   978.008E+03,   978.008E+03
C:/temp/Job-44.odb,Step-1,Increment      1: Step Time =    1.000,"P-44-1",           315,       19.2288,       135.264,            0.,NA,NA,"",   871.354E+03,   952.122E+03,   952.122E+03
C:/temp/Job-44.odb,Step-1,Increment      1: Step Time =    1.000,"P-44-1",           316,       9.37990,       134.986,            0.,NA,NA,"",   837.000E+03,   931.597E+03,   931.597E+03
C:/temp/Job-44.odb,Step-1,Increment      1: Step Time =    1.000,"P-44-1",           317,       186.765,       148.795,            0.,NA,NA,"",   998.329E+03,   1.00517E+06,   1.00517E+06
C:/temp/Job-44.odb,Step-1,Increment      1: Step Time =    1.000,"P-44-1",           318,       177.782,       145.512,            0.,NA,NA,"",   1.01028E+06,   1.01230E+06,   1.01230E+06
C:/temp/Job-44.odb,Step-1,Increment      1: Step Time =    1.000,"P-44-1",           319,       171.130,       144.599,            0.,NA,NA,"",   1.02223E+06,   1.01898E+06,   1.01898E+06
C:/temp/Job-44.odb,Step-1,Increment      1: Step Time =    1.000,"P-44-1",           320,       156.779,       144.675,            0.,NA,NA,"",   1.05997E+06,   1.04274E+06,   1.04274E+06
C:/temp/Job-44.odb,Step-1,Increment      1: Step Time =    1.000,"P-44-1",           321,       149.033,       145.502,            0.,NA,NA,"",   1.08300E+06,   1.05984E+06,   1.05984E+06
C:/temp/Job-44.odb,Step-1,Increment      1: Step Time =    1.000,"P-44-1",           322,       140.627,       145.143,            0.,NA,NA,"",   1.10945E+06,   1.08126E+06,   1.08126E+06
C:/temp/Job-44.odb,Step-1,Increment      1: Step Time =    1.000,"P-44-1",           323,       125.587,       146.736,            0.,NA,NA,"",   1.12439E+06,   1.11180E+06,   1.11180E+06
C:/temp/Job-44.odb,Step-1,Increment      1: Step Time =    1.000,"P-44-1",           324,       112.650,       149.365,            0.,NA,NA,"",   1.06618E+06,   1.09121E+06,   1.09121E+06
C:/temp/Job-44.odb,Step-1,Increment      1: Step Time =    1.000,"P-44-1",           325,       104.122,       148.777,            0.,NA,NA,"",   1.03831E+06,   1.08248E+06,   1.08248E+06
C:/temp/Job-44.odb,Step-1,Increment      1: Step Time =    1.000,"P-44-1",           326,       95.0455,       148.638,            0.,NA,NA,"",   1.04164E+06,   1.08586E+06,   1.08586E+06
C:/temp/Job-44.odb,Step-1,Increment      1: Step Time =    1.000,"P-44-1",           327,       85.5218,       149.003,            0.,NA,NA,"",   1.07434E+06,   1.10066E+06,   1.10066E+06
C:/temp/Job-44.odb,Step-1,Increment      1: Step Time =    1.000,"P-44-1",           328,       74.5669,       149.165,            0.,NA,NA,"",   1.10623E+06,   1.11018E+06,   1.11018E+06
C:/temp/Job-44.odb,Step-1,Increment      1: Step Time =    1.000,"P-44-1",           329,       62.4541,       148.211,            0.,NA,NA,"",   1.09564E+06,   1.09398E+06,   1.09398E+06
C:/temp/Job-44.odb,Step-1,Increment      1: Step Time =    1.000,"P-44-1",           330,       52.0327,       148.574,            0.,NA,NA,"",   1.05786E+06,   1.06839E+06,   1.06839E+06
C:/temp/Job-44.odb,Step-1,Increment      1: Step Time =    1.000,"P-44-1",           331,       41.5423,       148.030,            0.,NA,NA,"",   1.01384E+06,   1.04367E+06,   1.04367E+06
C:/temp/Job-44.odb,Step-1,Increment      1: Step Time =    1.000,"P-44-1",           332,       31.3465,       151.266,            0.,NA,NA,"",   985.881E+03,   1.03290E+06,   1.03290E+06
C:/temp/Job-44.odb,Step-1,Increment      1: Step Time =    1.000,"P-44-1",           333,       19.5906,       148.643,            0.,NA,NA,"",   922.492E+03,   997.312E+03,   997.312E+03
C:/temp/Job-44.odb,Step-1,Increment      1: Step Time =    1.000,"P-44-1",           334,       9.47646,       149.318,            0.,NA,NA,"",   882.607E+03,   975.960E+03,   975.960E+03
C:/temp/Job-44.odb,Step-1,Increment      1: Step Time =    1.000,"P-44-1",           335,       188.591,       158.718,            0.,NA,NA,"",   1.00036E+06,   1.00399E+06,   1.00399E+06
C:/temp/Job-44.odb,Step-1,Increment      1: Step Time =    1.000,"P-44-1",           336,       180.626,       156.235,            0.,NA,NA,"",   1.00872E+06,   1.00999E+06,   1.00999E+06
C:/temp/Job-44.odb,Step-1,Increment      1: Step Time =    1.000,"P-44-1",           337,       169.828,       156.848,            0.,NA,NA,"",   1.02645E+06,   1.02126E+06,   1.02126E+06
C:/temp/Job-44.odb,Step-1,Increment      1: Step Time =    1.000,"P-44-1",           338,       159.804,       159.682,            0.,NA,NA,"",   1.04192E+06,   1.03176E+06,   1.03176E+06
C:/temp/Job-44.odb,Step-1,Increment      1: Step Time =    1.000,"P-44-1",           339,       146.692,       158.675,            0.,NA,NA,"",   1.06588E+06,   1.05058E+06,   1.05058E+06
C:/temp/Job-44.odb,Step-1,Increment      1: Step Time =    1.000,"P-44-1",           340,       136.700,       156.390,            0.,NA,NA,"",   1.08308E+06,   1.06775E+06,   1.06775E+06
C:/temp/Job-44.odb,Step-1,Increment      1: Step Time =    1.000,"P-44-1",           341,       126.028,       156.071,            0.,NA,NA,"",   1.07986E+06,   1.07530E+06,   1.07530E+06
C:/temp/Job-44.odb,Step-1,Increment      1: Step Time =    1.000,"P-44-1",           342,       115.956,       160.526,            0.,NA,NA,"",   1.04053E+06,    1.0531E+06,    1.0531E+06
C:/temp/Job-44.odb,Step-1,Increment      1: Step Time =    1.000,"P-44-1",           343,       104.760,       158.935,            0.,NA,NA,"",   1.02303E+06,   1.05014E+06,   1.05014E+06
C:/temp/Job-44.odb,Step-1,Increment      1: Step Time =    1.000,"P-44-1",           344,       95.1357,       158.402,            0.,NA,NA,"",   1.02565E+06,   1.05456E+06,   1.05456E+06
C:/temp/Job-44.odb,Step-1,Increment      1: Step Time =    1.000,"P-44-1",           345,       86.4145,       158.171,            0.,NA,NA,"",   1.04406E+06,   1.06579E+06,   1.06579E+06
C:/temp/Job-44.odb,Step-1,Increment      1: Step Time =    1.000,"P-44-1",           346,       77.4313,       160.318,            0.,NA,NA,"",   1.06059E+06,   1.07036E+06,   1.07036E+06
C:/temp/Job-44.odb,Step-1,Increment      1: Step Time =    1.000,"P-44-1",           347,       63.1695,       156.350,            0.,NA,NA,"",   1.08306E+06,   1.08425E+06,   1.08425E+06
C:/temp/Job-44.odb,Step-1,Increment      1: Step Time =    1.000,"P-44-1",           348,       52.1081,       158.150,            0.,NA,NA,"",   1.06500E+06,   1.07329E+06,   1.07329E+06
C:/temp/Job-44.odb,Step-1,Increment      1: Step Time =    1.000,"P-44-1",           349,       41.9313,       157.991,            0.,NA,NA,"",   1.03996E+06,   1.06258E+06,   1.06258E+06
C:/temp/Job-44.odb,Step-1,Increment      1: Step Time =    1.000,"P-44-1",           350,       28.4141,       161.706,            0.,NA,NA,"",   1.00969E+06,   1.05555E+06,   1.05555E+06
C:/temp/Job-44.odb,Step-1,Increment      1: Step Time =    1.000,"P-44-1",           351,       18.9527,       157.864,            0.,NA,NA,"",   959.345E+03,   1.02960E+06,   1.02960E+06
C:/temp/Job-44.odb,Step-1,Increment      1: Step Time =    1.000,"P-44-1",           352,       9.56912,       158.847,            0.,NA,NA,"",   918.047E+03,   1.00951E+06,   1.00951E+06
C:/temp/Job-44.odb,Step-1,Increment      1: Step Time =    1.000,"P-44-1",           353,       190.090,       169.749,            0.,NA,NA,"",   1.00092E+06,   1.00215E+06,   1.00215E+06
C:/temp/Job-44.odb,Step-1,Increment      1: Step Time =    1.000,"P-44-1",           354,       177.059,       170.814,            0.,NA,NA,"",   1.00938E+06,   1.00827E+06,   1.00827E+06
C:/temp/Job-44.odb,Step-1,Increment      1: Step Time =    1.000,"P-44-1",           355,       169.789,       173.537,            0.,NA,NA,"",   1.01375E+06,   1.01092E+06,   1.01092E+06
C:/temp/Job-44.odb,Step-1,Increment      1: Step Time =    1.000,"P-44-1",           356,       160.502,       171.172,            0.,NA,NA,"",   1.02487E+06,   1.01891E+06,   1.01891E+06
C:/temp/Job-44.odb,Step-1,Increment      1: Step Time =    1.000,"P-44-1",           357,       144.435,       169.055,            0.,NA,NA,"",   1.04140E+06,   1.03242E+06,   1.03242E+06
C:/temp/Job-44.odb,Step-1,Increment      1: Step Time =    1.000,"P-44-1",           358,       134.486,       168.761,            0.,NA,NA,"",   1.04218E+06,   1.03614E+06,   1.03614E+06
C:/temp/Job-44.odb,Step-1,Increment      1: Step Time =    1.000,"P-44-1",           359,       124.089,       167.491,            0.,NA,NA,"",   1.03521E+06,   1.03683E+06,   1.03683E+06
C:/temp/Job-44.odb,Step-1,Increment      1: Step Time =    1.000,"P-44-1",           360,       114.435,       169.773,            0.,NA,NA,"",   1.01474E+06,   1.02451E+06,   1.02451E+06
C:/temp/Job-44.odb,Step-1,Increment      1: Step Time =    1.000,"P-44-1",           361,       104.810,       169.534,            0.,NA,NA,"",   1.00594E+06,   1.02139E+06,   1.02139E+06
C:/temp/Job-44.odb,Step-1,Increment      1: Step Time =    1.000,"P-44-1",           362,       94.4885,       169.470,            0.,NA,NA,"",   1.00807E+06,   1.02414E+06,   1.02414E+06
C:/temp/Job-44.odb,Step-1,Increment      1: Step Time =    1.000,"P-44-1",           363,       84.1821,       169.929,            0.,NA,NA,"",   1.02169E+06,   1.03274E+06,   1.03274E+06
C:/temp/Job-44.odb,Step-1,Increment      1: Step Time =    1.000,"P-44-1",           364,       73.4061,       169.742,            0.,NA,NA,"",   1.04212E+06,   1.04704E+06,   1.04704E+06
C:/temp/Job-44.odb,Step-1,Increment      1: Step Time =    1.000,"P-44-1",           365,       62.9537,       170.448,            0.,NA,NA,"",   1.05353E+06,   1.05517E+06,   1.05517E+06
C:/temp/Job-44.odb,Step-1,Increment      1: Step Time =    1.000,"P-44-1",           366,       52.5218,       169.352,            0.,NA,NA,"",   1.05966E+06,   1.06469E+06,   1.06469E+06
C:/temp/Job-44.odb,Step-1,Increment      1: Step Time =    1.000,"P-44-1",           367,       41.3005,       169.490,            0.,NA,NA,"",   1.05538E+06,   1.07026E+06,   1.07026E+06
C:/temp/Job-44.odb,Step-1,Increment      1: Step Time =    1.000,"P-44-1",           368,       31.4495,       169.026,            0.,NA,NA,"",   1.04295E+06,   1.07431E+06,   1.07431E+06
C:/temp/Job-44.odb,Step-1,Increment      1: Step Time =    1.000,"P-44-1",           369,       18.8992,       166.549,            0.,NA,NA,"",   998.969E+03,   1.06220E+06,   1.06220E+06
C:/temp/Job-44.odb,Step-1,Increment      1: Step Time =    1.000,"P-44-1",           370,       9.89577,       168.480,            0.,NA,NA,"",   965.324E+03,   1.05214E+06,   1.05214E+06
C:/temp/Job-44.odb,Step-1,Increment      1: Step Time =    1.000,"P-44-1",           371,       190.127,       179.797,            0.,NA,NA,"",   1.00078E+06,   1.00103E+06,   1.00103E+06
C:/temp/Job-44.odb,Step-1,Increment      1: Step Time =    1.000,"P-44-1",           372,       176.762,       177.851,            0.,NA,NA,"",   1.00604E+06,   1.00516E+06,   1.00516E+06
C:/temp/Job-44.odb,Step-1,Increment      1: Step Time =    1.000,"P-44-1",           373,       168.538,       181.490,            0.,NA,NA,"",   1.00768E+06,   1.00585E+06,   1.00585E+06
C:/temp/Job-44.odb,Step-1,Increment      1: Step Time =    1.000,"P-44-1",           374,       159.568,       180.282,            0.,NA,NA,"",   1.01225E+06,   1.00885E+06,   1.00885E+06
C:/temp/Job-44.odb,Step-1,Increment      1: Step Time =    1.000,"P-44-1",           375,       149.640,       179.657,            0.,NA,NA,"",   1.01498E+06,   1.01065E+06,   1.01065E+06
C:/temp/Job-44.odb,Step-1,Increment      1: Step Time =    1.000,"P-44-1",           376,       134.768,       179.514,            0.,NA,NA,"",   1.01067E+06,   1.00809E+06,   1.00809E+06
C:/temp/Job-44.odb,Step-1,Increment      1: Step Time =    1.000,"P-44-1",           377,       124.942,       179.565,            0.,NA,NA,"",   1.00174E+06,   1.00247E+06,   1.00247E+06
C:/temp/Job-44.odb,Step-1,Increment      1: Step Time =    1.000,"P-44-1",           378,       115.010,       179.858,            0.,NA,NA,"",   991.025E+03,   995.701E+03,   995.701E+03
C:/temp/Job-44.odb,Step-1,Increment      1: Step Time =    1.000,"P-44-1",           379,       104.966,       179.873,            0.,NA,NA,"",   984.505E+03,   991.875E+03,   991.875E+03
C:/temp/Job-44.odb,Step-1,Increment      1: Step Time =    1.000,"P-44-1",           380,       94.8426,       179.822,            0.,NA,NA,"",   985.927E+03,   993.676E+03,   993.676E+03
C:/temp/Job-44.odb,Step-1,Increment      1: Step Time =    1.000,"P-44-1",           381,       84.6502,       180.024,            0.,NA,NA,"",   995.111E+03,   1.00078E+06,   1.00078E+06
C:/temp/Job-44.odb,Step-1,Increment      1: Step Time =    1.000,"P-44-1",           382,       74.7039,       180.533,            0.,NA,NA,"",   1.00770E+06,   1.01035E+06,   1.01035E+06
C:/temp/Job-44.odb,Step-1,Increment      1: Step Time =    1.000,"P-44-1",           383,       65.0357,       181.308,            0.,NA,NA,"",   1.02064E+06,   1.02142E+06,   1.02142E+06
C:/temp/Job-44.odb,Step-1,Increment      1: Step Time =    1.000,"P-44-1",           384,       55.0607,       181.134,            0.,NA,NA,"",   1.03544E+06,   1.03655E+06,   1.03655E+06
C:/temp/Job-44.odb,Step-1,Increment      1: Step Time =    1.000,"P-44-1",           385,       40.3077,       174.373,            0.,NA,NA,"",   1.05919E+06,   1.07140E+06,   1.07140E+06
C:/temp/Job-44.odb,Step-1,Increment      1: Step Time =    1.000,"P-44-1",           386,       31.3963,       179.578,            0.,NA,NA,"",   1.07170E+06,   1.08882E+06,   1.08882E+06
C:/temp/Job-44.odb,Step-1,Increment      1: Step Time =    1.000,"P-44-1",           387,       22.4758,       178.542,            0.,NA,NA,"",   1.07623E+06,   1.11056E+06,   1.11056E+06
C:/temp/Job-44.odb,Step-1,Increment      1: Step Time =    1.000,"P-44-1",           388,       11.4606,       178.937,            0.,NA,NA,"",   1.04973E+06,   1.11951E+06,   1.11951E+06
C:/temp/Job-44.odb,Step-1,Increment      1: Step Time =    1.000,"P-44-1",           389,       189.849,       189.759,            0.,NA,NA,"",   1.00015E+06,   1.00017E+06,   1.00017E+06
C:/temp/Job-44.odb,Step-1,Increment      1: Step Time =    1.000,"P-44-1",           390,       179.437,       189.572,            0.,NA,NA,"",   1.00080E+06,   1.00064E+06,   1.00064E+06
C:/temp/Job-44.odb,Step-1,Increment      1: Step Time =    1.000,"P-44-1",           391,       169.227,       190.255,            0.,NA,NA,"",   1.00102E+06,   1.00041E+06,   1.00041E+06
C:/temp/Job-44.odb,Step-1,Increment      1: Step Time =    1.000,"P-44-1",           392,       159.511,       190.177,            0.,NA,NA,"",   999.842E+03,   998.780E+03,   998.780E+03
C:/temp/Job-44.odb,Step-1,Increment      1: Step Time =    1.000,"P-44-1",           393,       149.730,       190.004,            0.,NA,NA,"",   996.056E+03,   994.751E+03,   994.751E+03
C:/temp/Job-44.odb,Step-1,Increment      1: Step Time =    1.000,"P-44-1",           394,       134.981,       190.003,            0.,NA,NA,"",   983.736E+03,   982.970E+03,   982.970E+03
C:/temp/Job-44.odb,Step-1,Increment      1: Step Time =    1.000,"P-44-1",           395,       125.099,       190.007,            0.,NA,NA,"",   972.429E+03,   972.632E+03,   972.632E+03
C:/temp/Job-44.odb,Step-1,Increment      1: Step Time =    1.000,"P-44-1",           396,       115.101,       189.988,            0.,NA,NA,"",   961.578E+03,    962.96E+03,    962.96E+03
C:/temp/Job-44.odb,Step-1,Increment      1: Step Time =    1.000,"P-44-1",           397,       105.016,       189.956,            0.,NA,NA,"",   954.825E+03,   957.047E+03,   957.047E+03
C:/temp/Job-44.odb,Step-1,Increment      1: Step Time =    1.000,"P-44-1",           398,       94.9522,       189.935,            0.,NA,NA,"",   954.784E+03,   957.105E+03,   957.105E+03
C:/temp/Job-44.odb,Step-1,Increment      1: Step Time =    1.000,"P-44-1",           399,       84.9248,       190.040,            0.,NA,NA,"",   961.451E+03,   963.136E+03,   963.136E+03
C:/temp/Job-44.odb,Step-1,Increment      1: Step Time =    1.000,"P-44-1",           400,       74.9784,       190.289,            0.,NA,NA,"",   973.066E+03,   973.804E+03,   973.804E+03
C:/temp/Job-44.odb,Step-1,Increment      1: Step Time =    1.000,"P-44-1",           401,       65.0447,       190.553,            0.,NA,NA,"",   987.777E+03,   987.894E+03,   987.894E+03
C:/temp/Job-44.odb,Step-1,Increment      1: Step Time =    1.000,"P-44-1",           402,       50.7948,       186.322,            0.,NA,NA,"",   1.02780E+06,   1.02875E+06,   1.02875E+06
C:/temp/Job-44.odb,Step-1,Increment      1: Step Time =    1.000,"P-44-1",           403,       41.2606,       188.915,            0.,NA,NA,"",   1.03910E+06,   1.04146E+06,   1.04146E+06
C:/temp/Job-44.odb,Step-1,Increment      1: Step Time =    1.000,"P-44-1",           404,       30.6105,       189.607,            0.,NA,NA,"",   1.06940E+06,   1.07547E+06,   1.07547E+06
C:/temp/Job-44.odb,Step-1,Increment      1: Step Time =    1.000,"P-44-1",           405,       20.5277,       189.428,            0.,NA,NA,"",   1.12110E+06,   1.13525E+06,   1.13525E+06
C:/temp/Job-44.odb,Step-1,Increment      1: Step Time =    1.000,"P-44-1",           406,       10.3078,       189.777,            0.,NA,NA,"",   1.19940E+06,   1.24086E+06,   1.24086E+06
C:/temp/Job-44.odb,Step-1,Increment      1: Step Time =    1.000,"P-44-1",           407,       91.0010,       110.725,            0.,NA,NA,"",   1.27295E+06,   1.28427E+06,   1.28427E+06
C:/temp/Job-44.odb,Step-1,Increment      1: Step Time =    1.000,"P-44-1",           408,       86.2127,       97.5689,            0.,NA,NA,"",   466.690E+03,  -384.623E+03,  -384.623E+03
C:/temp/Job-44.odb,Step-1,Increment      1: Step Time =    1.000,"P-44-1",           409,       95.2117,       86.8443,            0.,NA,NA,"",   1.89599E+06,   1.96638E+06,   1.96638E+06
C:/temp/Job-44.odb,Step-1,Increment      1: Step Time =    1.000,"P-44-1",           410,       108.999,       89.2754,            0.,NA,NA,"",   1.22222E+06,   1.21596E+06,   1.21596E+06
C:/temp/Job-44.odb,Step-1,Increment      1: Step Time =    1.000,"P-44-1",           411,       113.787,       102.431,            0.,NA,NA,"",   511.756E+03,  -424.638E+03,  -424.638E+03
C:/temp/Job-44.odb,Step-1,Increment      1: Step Time =    1.000,"P-44-1",           412,       104.788,       113.156,            0.,NA,NA,"",   1.91627E+06,   1.98326E+06,   1.98326E+06
C:/temp/Job-44.odb,Step-1,Increment      1: Step Time =    1.000,"P-44-1",           413,          195.,            0.,            0.,NA,NA,"",   999.869E+03,   999.844E+03,   999.844E+03
C:/temp/Job-44.odb,Step-1,Increment      1: Step Time =    1.000,"P-44-1",           414,          185.,            0.,            0.,NA,NA,"",   999.260E+03,   999.249E+03,   999.249E+03
C:/temp/Job-44.odb,Step-1,Increment      1: Step Time =    1.000,"P-44-1",           415,          175.,            0.,            0.,NA,NA,"",   998.301E+03,   998.257E+03,   998.257E+03
C:/temp/Job-44.odb,Step-1,Increment      1: Step Time =    1.000,"P-44-1",           416,          165.,            0.,            0.,NA,NA,"",   995.925E+03,   995.832E+03,   995.832E+03
C:/temp/Job-44.odb,Step-1,Increment      1: Step Time =    1.000,"P-44-1",           417,          155.,            0.,            0.,NA,NA,"",   990.480E+03,   990.360E+03,   990.360E+03
C:/temp/Job-44.odb,Step-1,Increment      1: Step Time =    1.000,"P-44-1",           418,          145.,            0.,            0.,NA,NA,"",   980.374E+03,   980.255E+03,   980.255E+03
C:/temp/Job-44.odb,Step-1,Increment      1: Step Time =    1.000,"P-44-1",           419,          135.,            0.,            0.,NA,NA,"",   966.077E+03,   965.997E+03,   965.997E+03
C:/temp/Job-44.odb,Step-1,Increment      1: Step Time =    1.000,"P-44-1",           420,          125.,            0.,            0.,NA,NA,"",   949.308E+03,   949.331E+03,   949.331E+03
C:/temp/Job-44.odb,Step-1,Increment      1: Step Time =    1.000,"P-44-1",           421,          115.,            0.,            0.,NA,NA,"",   933.693E+03,   933.855E+03,   933.855E+03
C:/temp/Job-44.odb,Step-1,Increment      1: Step Time =    1.000,"P-44-1",           422,          105.,            0.,            0.,NA,NA,"",   923.845E+03,   924.096E+03,   924.096E+03
C:/temp/Job-44.odb,Step-1,Increment      1: Step Time =    1.000,"P-44-1",           423,           95.,            0.,            0.,NA,NA,"",   922.460E+03,   922.736E+03,   922.736E+03
C:/temp/Job-44.odb,Step-1,Increment      1: Step Time =    1.000,"P-44-1",           424,           85.,            0.,            0.,NA,NA,"",   929.745E+03,   929.970E+03,   929.970E+03
C:/temp/Job-44.odb,Step-1,Increment      1: Step Time =    1.000,"P-44-1",           425,           75.,            0.,            0.,NA,NA,"",   943.651E+03,   943.779E+03,   943.779E+03
C:/temp/Job-44.odb,Step-1,Increment      1: Step Time =    1.000,"P-44-1",           426,           65.,            0.,            0.,NA,NA,"",   960.769E+03,   960.841E+03,   960.841E+03
C:/temp/Job-44.odb,Step-1,Increment      1: Step Time =    1.000,"P-44-1",           427,           55.,            0.,            0.,NA,NA,"",   978.492E+03,   978.607E+03,   978.607E+03
C:/temp/Job-44.odb,Step-1,Increment      1: Step Time =    1.000,"P-44-1",           428,           45.,            0.,            0.,NA,NA,"",   996.828E+03,   997.097E+03,   997.097E+03
C:/temp/Job-44.odb,Step-1,Increment      1: Step Time =    1.000,"P-44-1",           429,           35.,            0.,            0.,NA,NA,"",   1.01983E+06,   1.02045E+06,   1.02045E+06
C:/temp/Job-44.odb,Step-1,Increment      1: Step Time =    1.000,"P-44-1",           430,           25.,            0.,            0.,NA,NA,"",   1.05899E+06,   1.06056E+06,   1.06056E+06
C:/temp/Job-44.odb,Step-1,Increment      1: Step Time =    1.000,"P-44-1",           431,           15.,            0.,            0.,NA,NA,"",   1.14345E+06,   1.14874E+06,   1.14874E+06
C:/temp/Job-44.odb,Step-1,Increment      1: Step Time =    1.000,"P-44-1",           432,            5.,            0.,            0.,NA,NA,"",   1.44193E+06,   1.47488E+06,   1.47488E+06
C:/temp/Job-44.odb,Step-1,Increment      1: Step Time =    1.000,"P-44-1",           433,          200.,          195.,            0.,NA,NA,"",   1.00003E+06,   999.964E+03,   999.964E+03
C:/temp/Job-44.odb,Step-1,Increment      1: Step Time =    1.000,"P-44-1",           434,          200.,          185.,            0.,NA,NA,"",   1.00033E+06,   1.00007E+06,   1.00007E+06
C:/temp/Job-44.odb,Step-1,Increment      1: Step Time =    1.000,"P-44-1",           435,          200.,          175.,            0.,NA,NA,"",   1.00012E+06,   1.00022E+06,   1.00022E+06
C:/temp/Job-44.odb,Step-1,Increment      1: Step Time =    1.000,"P-44-1",           436,          200.,          165.,            0.,NA,NA,"",   998.231E+03,   1.00032E+06,   1.00032E+06
C:/temp/Job-44.odb,Step-1,Increment      1: Step Time =    1.000,"P-44-1",           437,          200.,          155.,            0.,NA,NA,"",   993.990E+03,   1.00034E+06,   1.00034E+06
C:/temp/Job-44.odb,Step-1,Increment      1: Step Time =    1.000,"P-44-1",           438,          200.,          145.,            0.,NA,NA,"",   986.482E+03,   1.00026E+06,   1.00026E+06
C:/temp/Job-44.odb,Step-1,Increment      1: Step Time =    1.000,"P-44-1",           439,          200.,          135.,            0.,NA,NA,"",   976.973E+03,   1.00028E+06,   1.00028E+06
C:/temp/Job-44.odb,Step-1,Increment      1: Step Time =    1.000,"P-44-1",           440,          200.,          125.,            0.,NA,NA,"",   966.449E+03,   999.873E+03,   999.873E+03
C:/temp/Job-44.odb,Step-1,Increment      1: Step Time =    1.000,"P-44-1",           441,          200.,          115.,            0.,NA,NA,"",   957.678E+03,   999.507E+03,   999.507E+03
C:/temp/Job-44.odb,Step-1,Increment      1: Step Time =    1.000,"P-44-1",           442,          200.,          105.,            0.,NA,NA,"",   952.421E+03,   999.159E+03,   999.159E+03
C:/temp/Job-44.odb,Step-1,Increment      1: Step Time =    1.000,"P-44-1",           443,          200.,           95.,            0.,NA,NA,"",   952.561E+03,   999.254E+03,   999.254E+03
C:/temp/Job-44.odb,Step-1,Increment      1: Step Time =    1.000,"P-44-1",           444,          200.,           85.,            0.,NA,NA,"",   957.813E+03,   999.507E+03,   999.507E+03
C:/temp/Job-44.odb,Step-1,Increment      1: Step Time =    1.000,"P-44-1",           445,          200.,           75.,            0.,NA,NA,"",   966.813E+03,   999.866E+03,   999.866E+03
C:/temp/Job-44.odb,Step-1,Increment      1: Step Time =    1.000,"P-44-1",           446,          200.,           65.,            0.,NA,NA,"",   977.303E+03,   1.00019E+06,   1.00019E+06
C:/temp/Job-44.odb,Step-1,Increment      1: Step Time =    1.000,"P-44-1",           447,          200.,           55.,            0.,NA,NA,"",   986.967E+03,   1.00039E+06,   1.00039E+06
C:/temp/Job-44.odb,Step-1,Increment      1: Step Time =    1.000,"P-44-1",           448,          200.,           45.,            0.,NA,NA,"",   994.198E+03,   1.00041E+06,   1.00041E+06
C:/temp/Job-44.odb,Step-1,Increment      1: Step Time =    1.000,"P-44-1",           449,          200.,           35.,            0.,NA,NA,"",   998.493E+03,   1.00033E+06,   1.00033E+06
C:/temp/Job-44.odb,Step-1,Increment      1: Step Time =    1.000,"P-44-1",           450,          200.,           25.,            0.,NA,NA,"",   1.00019E+06,   1.00020E+06,   1.00020E+06
C:/temp/Job-44.odb,Step-1,Increment      1: Step Time =    1.000,"P-44-1",           451,          200.,           15.,            0.,NA,NA,"",   1.00035E+06,   1.00007E+06,   1.00007E+06
C:/temp/Job-44.odb,Step-1,Increment      1: Step Time =    1.000,"P-44-1",           452,          200.,            5.,            0.,NA,NA,"",   1.00002E+06,   999.947E+03,   999.947E+03
C:/temp/Job-44.odb,Step-1,Increment      1: Step Time =    1.000,"P-44-1",           453,            5.,          200.,            0.,NA,NA,"",   1.44204E+06,   1.47535E+06,   1.47535E+06
C:/temp/Job-44.odb,Step-1,Increment      1: Step Time =    1.000,"P-44-1",           454,           15.,          200.,            0.,NA,NA,"",   1.14393E+06,   1.14950E+06,   1.14950E+06
C:/temp/Job-44.odb,Step-1,Increment      1: Step Time =    1.000,"P-44-1",           455,           25.,          200.,            0.,NA,NA,"",   1.05980E+06,   1.06155E+06,   1.06155E+06
C:/temp/Job-44.odb,Step-1,Increment      1: Step Time =    1.000,"P-44-1",           456,           35.,          200.,            0.,NA,NA,"",   1.01997E+06,   1.02069E+06,   1.02069E+06
C:/temp/Job-44.odb,Step-1,Increment      1: Step Time =    1.000,"P-44-1",           457,           45.,          200.,            0.,NA,NA,"",   996.427E+03,   996.684E+03,   996.684E+03
C:/temp/Job-44.odb,Step-1,Increment      1: Step Time =    1.000,"P-44-1",           458,           55.,          200.,            0.,NA,NA,"",   976.934E+03,   977.034E+03,   977.034E+03
C:/temp/Job-44.odb,Step-1,Increment      1: Step Time =    1.000,"P-44-1",           459,           65.,          200.,            0.,NA,NA,"",   959.293E+03,   959.331E+03,   959.331E+03
C:/temp/Job-44.odb,Step-1,Increment      1: Step Time =    1.000,"P-44-1",           460,           75.,          200.,            0.,NA,NA,"",   942.655E+03,   942.763E+03,   942.763E+03
C:/temp/Job-44.odb,Step-1,Increment      1: Step Time =    1.000,"P-44-1",           461,           85.,          200.,            0.,NA,NA,"",   929.285E+03,   929.509E+03,   929.509E+03
C:/temp/Job-44.odb,Step-1,Increment      1: Step Time =    1.000,"P-44-1",           462,           95.,          200.,            0.,NA,NA,"",   922.444E+03,   922.736E+03,   922.736E+03
C:/temp/Job-44.odb,Step-1,Increment      1: Step Time =    1.000,"P-44-1",           463,          105.,          200.,            0.,NA,NA,"",   924.219E+03,   924.486E+03,   924.486E+03
C:/temp/Job-44.odb,Step-1,Increment      1: Step Time =    1.000,"P-44-1",           464,          115.,          200.,            0.,NA,NA,"",   934.333E+03,   934.489E+03,   934.489E+03
C:/temp/Job-44.odb,Step-1,Increment      1: Step Time =    1.000,"P-44-1",           465,          125.,          200.,            0.,NA,NA,"",   949.934E+03,   949.953E+03,   949.953E+03
C:/temp/Job-44.odb,Step-1,Increment      1: Step Time =    1.000,"P-44-1",           466,          135.,          200.,            0.,NA,NA,"",   966.812E+03,   966.722E+03,   966.722E+03
C:/temp/Job-44.odb,Step-1,Increment      1: Step Time =    1.000,"P-44-1",           467,          145.,          200.,            0.,NA,NA,"",   981.228E+03,   981.086E+03,   981.086E+03
C:/temp/Job-44.odb,Step-1,Increment      1: Step Time =    1.000,"P-44-1",           468,          155.,          200.,            0.,NA,NA,"",   991.177E+03,   991.036E+03,   991.036E+03
C:/temp/Job-44.odb,Step-1,Increment      1: Step Time =    1.000,"P-44-1",           469,          165.,          200.,            0.,NA,NA,"",   996.556E+03,   996.456E+03,   996.456E+03
C:/temp/Job-44.odb,Step-1,Increment      1: Step Time =    1.000,"P-44-1",           470,          175.,          200.,            0.,NA,NA,"",   998.644E+03,   998.606E+03,   998.606E+03
C:/temp/Job-44.odb,Step-1,Increment      1: Step Time =    1.000,"P-44-1",           471,          185.,          200.,            0.,NA,NA,"",   999.365E+03,   999.366E+03,   999.366E+03
C:/temp/Job-44.odb,Step-1,Increment      1: Step Time =    1.000,"P-44-1",           472,          195.,          200.,            0.,NA,NA,"",   999.878E+03,   999.858E+03,   999.858E+03
C:/temp/Job-44.odb,Step-1,Increment      1: Step Time =    1.000,"P-44-1",           473,            0.,            5.,            0.,NA,NA,"",   1.39191E+06,   1.47845E+06,   1.47845E+06
C:/temp/Job-44.odb,Step-1,Increment      1: Step Time =    1.000,"P-44-1",           474,            0.,           15.,            0.,NA,NA,"",   1.05936E+06,   1.16159E+06,   1.16159E+06
C:/temp/Job-44.odb,Step-1,Increment      1: Step Time =    1.000,"P-44-1",           475,            0.,           25.,            0.,NA,NA,"",   964.050E+03,   1.06791E+06,   1.06791E+06
C:/temp/Job-44.odb,Step-1,Increment      1: Step Time =    1.000,"P-44-1",           476,            0.,           35.,            0.,NA,NA,"",   907.911E+03,   1.01253E+06,   1.01253E+06
C:/temp/Job-44.odb,Step-1,Increment      1: Step Time =    1.000,"P-44-1",           477,            0.,           45.,            0.,NA,NA,"",   870.365E+03,   974.923E+03,   974.923E+03
C:/temp/Job-44.odb,Step-1,Increment      1: Step Time =    1.000,"P-44-1",           478,            0.,           55.,            0.,NA,NA,"",   838.938E+03,   942.943E+03,   942.943E+03
C:/temp/Job-44.odb,Step-1,Increment      1: Step Time =    1.000,"P-44-1",           479,            0.,           65.,            0.,NA,NA,"",   813.171E+03,   915.749E+03,   915.749E+03
C:/temp/Job-44.odb,Step-1,Increment      1: Step Time =    1.000,"P-44-1",           480,            0.,           75.,            0.,NA,NA,"",   791.913E+03,   892.805E+03,   892.805E+03
C:/temp/Job-44.odb,Step-1,Increment      1: Step Time =    1.000,"P-44-1",           481,            0.,           85.,            0.,NA,NA,"",   776.188E+03,   875.698E+03,   875.698E+03
C:/temp/Job-44.odb,Step-1,Increment      1: Step Time =    1.000,"P-44-1",           482,            0.,           95.,            0.,NA,NA,"",   767.485E+03,   866.273E+03,   866.273E+03
C:/temp/Job-44.odb,Step-1,Increment      1: Step Time =    1.000,"P-44-1",           483,            0.,          105.,            0.,NA,NA,"",   767.692E+03,   866.508E+03,   866.508E+03
C:/temp/Job-44.odb,Step-1,Increment      1: Step Time =    1.000,"P-44-1",           484,            0.,          115.,            0.,NA,NA,"",   776.675E+03,   876.246E+03,   876.246E+03
C:/temp/Job-44.odb,Step-1,Increment      1: Step Time =    1.000,"P-44-1",           485,            0.,          125.,            0.,NA,NA,"",   793.170E+03,   894.063E+03,   894.063E+03
C:/temp/Job-44.odb,Step-1,Increment      1: Step Time =    1.000,"P-44-1",           486,            0.,          135.,            0.,NA,NA,"",   814.895E+03,   917.348E+03,   917.348E+03
C:/temp/Job-44.odb,Step-1,Increment      1: Step Time =    1.000,"P-44-1",           487,            0.,          145.,            0.,NA,NA,"",   840.432E+03,   944.318E+03,   944.318E+03
C:/temp/Job-44.odb,Step-1,Increment      1: Step Time =    1.000,"P-44-1",           488,            0.,          155.,            0.,NA,NA,"",   870.056E+03,   974.997E+03,   974.997E+03
C:/temp/Job-44.odb,Step-1,Increment      1: Step Time =    1.000,"P-44-1",           489,            0.,          165.,            0.,NA,NA,"",   907.241E+03,   1.01256E+06,   1.01256E+06
C:/temp/Job-44.odb,Step-1,Increment      1: Step Time =    1.000,"P-44-1",           490,            0.,          175.,            0.,NA,NA,"",   962.129E+03,   1.06671E+06,   1.06671E+06
C:/temp/Job-44.odb,Step-1,Increment      1: Step Time =    1.000,"P-44-1",           491,            0.,          185.,            0.,NA,NA,"",   1.05834E+06,   1.16116E+06,   1.16116E+06
C:/temp/Job-44.odb,Step-1,Increment      1: Step Time =    1.000,"P-44-1",           492,            0.,          195.,            0.,NA,NA,"",   1.39016E+06,   1.47734E+06,   1.47734E+06
C:/temp/Job-44.odb,Step-1,Increment      1: Step Time =    1.000,"P-44-1",           493,       119.184,       99.6828,            0.,NA,NA,"",   421.950E+03,  -81.7640E+03,  -81.7640E+03
C:/temp/Job-44.odb,Step-1,Increment      1: Step Time =    1.000,"P-44-1",           494,       79.8272,       100.892,            0.,NA,NA,"",   387.523E+03,  -12.8481E+03,  -12.8481E+03
C:/temp/Job-44.odb,Step-1,Increment      1: Step Time =    1.000,"P-44-1",           495,       83.8657,       109.872,            0.,NA,NA,"",   924.761E+03,   634.580E+03,   634.580E+03
C:/temp/Job-44.odb,Step-1,Increment      1: Step Time =    1.000,"P-44-1",           496,       115.724,       91.8774,            0.,NA,NA,"",   807.701E+03,   482.139E+03,   482.139E+03
C:/temp/Job-44.odb,Step-1,Increment      1: Step Time =    1.000,"P-44-1",           497,       115.288,       110.041,            0.,NA,NA,"",   963.005E+03,   643.505E+03,   643.505E+03
C:/temp/Job-44.odb,Step-1,Increment      1: Step Time =    1.000,"P-44-1",           498,       85.7045,       87.5272,            0.,NA,NA,"",   1.14774E+06,   1.04644E+06,   1.04644E+06
C:/temp/Job-44.odb,Step-1,Increment      1: Step Time =    1.000,"P-44-1",           499,       92.4037,       83.5534,            0.,NA,NA,"",   1.67853E+06,   1.72581E+06,   1.72581E+06
C:/temp/Job-44.odb,Step-1,Increment      1: Step Time =    1.000,"P-44-1",           500,       95.4169,       80.9137,            0.,NA,NA,"",   1.63418E+06,   1.74710E+06,   1.74710E+06
C:/temp/Job-44.odb,Step-1,Increment      1: Step Time =    1.000,"P-44-1",           501,       111.177,       83.3789,            0.,NA,NA,"",   1.47202E+06,   1.45485E+06,   1.45485E+06
C:/temp/Job-44.odb,Step-1,Increment      1: Step Time =    1.000,"P-44-1",           502,       103.990,       118.976,            0.,NA,NA,"",   1.66695E+06,   1.78633E+06,   1.78633E+06
C:/temp/Job-44.odb,Step-1,Increment      1: Step Time =    1.000,"P-44-1",           503,       102.658,       79.1949,            0.,NA,NA,"",   1.56233E+06,   1.69189E+06,   1.69189E+06
C:/temp/Job-44.odb,Step-1,Increment      1: Step Time =    1.000,"P-44-1",           504,       89.7305,       116.750,            0.,NA,NA,"",   1.48695E+06,   1.49961E+06,   1.49961E+06
C:/temp/Job-44.odb,Step-1,Increment      1: Step Time =    1.000,"P-44-1",           505,       107.579,       116.355,            0.,NA,NA,"",   1.69136E+06,   1.74610E+06,   1.74610E+06
C:/temp/Job-44.odb,Step-1,Increment      1: Step Time =    1.000,"P-44-1",           506,       97.2265,       119.428,            0.,NA,NA,"",   1.62019E+06,   1.75276E+06,   1.75276E+06
C:/temp/Job-44.odb,Step-1,Increment      1: Step Time =    1.000,"P-44-1",           507,       194.856,       25.4411,            0.,NA,NA,"",   1.00032E+06,   1.00061E+06,   1.00061E+06
C:/temp/Job-44.odb,Step-1,Increment      1: Step Time =    1.000,"P-44-1",           508,       195.165,       35.4503,            0.,NA,NA,"",   998.757E+03,   1.00091E+06,   1.00091E+06
C:/temp/Job-44.odb,Step-1,Increment      1: Step Time =    1.000,"P-44-1",           509,       45.3866,       195.205,            0.,NA,NA,"",   1.00602E+06,   1.00644E+06,   1.00644E+06
C:/temp/Job-44.odb,Step-1,Increment      1: Step Time =    1.000,"P-44-1",           510,       35.4036,       194.720,            0.,NA,NA,"",   1.03302E+06,   1.03428E+06,   1.03428E+06
C:/temp/Job-44.odb,Step-1,Increment      1: Step Time =    1.000,"P-44-1",           511,       25.2804,       194.770,            0.,NA,NA,"",   1.07451E+06,   1.07783E+06,   1.07783E+06
C:/temp/Job-44.odb,Step-1,Increment      1: Step Time =    1.000,"P-44-1",           512,       25.3363,       4.87599,            0.,NA,NA,"",   1.07316E+06,   1.07598E+06,   1.07598E+06
C:/temp/Job-44.odb,Step-1,Increment      1: Step Time =    1.000,"P-44-1",           513,       35.3675,       4.77331,            0.,NA,NA,"",   1.03145E+06,   1.03254E+06,   1.03254E+06
C:/temp/Job-44.odb,Step-1,Increment      1: Step Time =    1.000,"P-44-1",           514,       194.655,       15.3290,            0.,NA,NA,"",   1.00037E+06,   1.00023E+06,   1.00023E+06
C:/temp/Job-44.odb,Step-1,Increment      1: Step Time =    1.000,"P-44-1",           515,       5.35707,       10.1580,            0.,NA,NA,"",   1.18266E+06,   1.26001E+06,   1.26001E+06
C:/temp/Job-44.odb,Step-1,Increment      1: Step Time =    1.000,"P-44-1",           516,       5.65482,       15.3137,            0.,NA,NA,"",   1.07872E+06,   1.16625E+06,   1.16625E+06
C:/temp/Job-44.odb,Step-1,Increment      1: Step Time =    1.000,"P-44-1",           517,       5.72925,       25.5580,            0.,NA,NA,"",   978.567E+03,   1.07365E+06,   1.07365E+06
C:/temp/Job-44.odb,Step-1,Increment      1: Step Time =    1.000,"P-44-1",           518,       5.56017,       35.9213,            0.,NA,NA,"",   920.382E+03,   1.01900E+06,   1.01900E+06
C:/temp/Job-44.odb,Step-1,Increment      1: Step Time =    1.000,"P-44-1",           519,       5.08623,       45.8960,            0.,NA,NA,"",   879.574E+03,   979.805E+03,   979.805E+03
C:/temp/Job-44.odb,Step-1,Increment      1: Step Time =    1.000,"P-44-1",           520,       5.12058,       194.903,            0.,NA,NA,"",   1.34935E+06,   1.40091E+06,   1.40091E+06
C:/temp/Job-44.odb,Step-1,Increment      1: Step Time =    1.000,"P-44-1",           521,       15.2865,       4.99706,            0.,NA,NA,"",   1.15534E+06,   1.16451E+06,   1.16451E+06
C:/temp/Job-44.odb,Step-1,Increment      1: Step Time =    1.000,"P-44-1",           522,       15.2267,       194.815,            0.,NA,NA,"",   1.15613E+06,   1.16585E+06,   1.16585E+06
C:/temp/Job-44.odb,Step-1,Increment      1: Step Time =    1.000,"P-44-1",           523,       45.2427,       4.80000,            0.,NA,NA,"",   1.00702E+06,   1.00729E+06,   1.00729E+06
C:/temp/Job-44.odb,Step-1,Increment      1: Step Time =    1.000,"P-44-1",           524,       55.0850,       4.85433,            0.,NA,NA,"",   988.152E+03,   988.166E+03,   988.166E+03
C:/temp/Job-44.odb,Step-1,Increment      1: Step Time =    1.000,"P-44-1",           525,       64.9463,       4.87904,            0.,NA,NA,"",   970.725E+03,   970.732E+03,   970.732E+03
C:/temp/Job-44.odb,Step-1,Increment      1: Step Time =    1.000,"P-44-1",           526,       74.8784,       4.91177,            0.,NA,NA,"",   954.318E+03,   954.557E+03,   954.557E+03
C:/temp/Job-44.odb,Step-1,Increment      1: Step Time =    1.000,"P-44-1",           527,       84.8840,       4.96642,            0.,NA,NA,"",   941.053E+03,   941.634E+03,   941.634E+03
C:/temp/Job-44.odb,Step-1,Increment      1: Step Time =    1.000,"P-44-1",           528,       94.9338,       4.98592,            0.,NA,NA,"",   933.878E+03,   934.672E+03,   934.672E+03
C:/temp/Job-44.odb,Step-1,Increment      1: Step Time =    1.000,"P-44-1",           529,       104.929,       4.94211,            0.,NA,NA,"",   934.557E+03,   935.313E+03,   935.313E+03
C:/temp/Job-44.odb,Step-1,Increment      1: Step Time =    1.000,"P-44-1",           530,       114.913,       4.88510,            0.,NA,NA,"",   942.938E+03,   943.416E+03,   943.416E+03
C:/temp/Job-44.odb,Step-1,Increment      1: Step Time =    1.000,"P-44-1",           531,       124.972,       4.87312,            0.,NA,NA,"",   956.663E+03,   956.726E+03,   956.726E+03
C:/temp/Job-44.odb,Step-1,Increment      1: Step Time =    1.000,"P-44-1",           532,       135.024,       4.83876,            0.,NA,NA,"",   971.403E+03,   971.140E+03,   971.140E+03
C:/temp/Job-44.odb,Step-1,Increment      1: Step Time =    1.000,"P-44-1",           533,       144.921,       4.65244,            0.,NA,NA,"",   983.574E+03,   983.203E+03,   983.203E+03
C:/temp/Job-44.odb,Step-1,Increment      1: Step Time =    1.000,"P-44-1",           534,       154.628,       4.60172,            0.,NA,NA,"",   992.262E+03,   991.891E+03,   991.891E+03
C:/temp/Job-44.odb,Step-1,Increment      1: Step Time =    1.000,"P-44-1",           535,       164.485,       4.99068,            0.,NA,NA,"",   997.121E+03,   996.822E+03,   996.822E+03
C:/temp/Job-44.odb,Step-1,Increment      1: Step Time =    1.000,"P-44-1",           536,       174.625,       5.00760,            0.,NA,NA,"",   998.986E+03,   998.857E+03,   998.857E+03
C:/temp/Job-44.odb,Step-1,Increment      1: Step Time =    1.000,"P-44-1",           537,       184.748,       5.14714,            0.,NA,NA,"",   999.571E+03,   999.552E+03,   999.552E+03
C:/temp/Job-44.odb,Step-1,Increment      1: Step Time =    1.000,"P-44-1",           538,       194.858,       5.12140,            0.,NA,NA,"",   999.947E+03,   999.892E+03,   999.892E+03
C:/temp/Job-44.odb,Step-1,Increment      1: Step Time =    1.000,"P-44-1",           539,       195.188,       45.2955,            0.,NA,NA,"",   994.887E+03,   1.00109E+06,   1.00109E+06
C:/temp/Job-44.odb,Step-1,Increment      1: Step Time =    1.000,"P-44-1",           540,       55.1691,       195.431,            0.,NA,NA,"",   985.803E+03,   985.844E+03,   985.844E+03
C:/temp/Job-44.odb,Step-1,Increment      1: Step Time =    1.000,"P-44-1",           541,       195.147,       55.1285,            0.,NA,NA,"",   988.348E+03,   1.00103E+06,   1.00103E+06
C:/temp/Job-44.odb,Step-1,Increment      1: Step Time =    1.000,"P-44-1",           542,       65.0428,       195.286,            0.,NA,NA,"",   968.952E+03,   968.975E+03,   968.975E+03
C:/temp/Job-44.odb,Step-1,Increment      1: Step Time =    1.000,"P-44-1",           543,       195.116,       64.9682,            0.,NA,NA,"",   979.475E+03,   1.00058E+06,   1.00058E+06
C:/temp/Job-44.odb,Step-1,Increment      1: Step Time =    1.000,"P-44-1",           544,       75.0121,       195.147,            0.,NA,NA,"",   953.130E+03,   953.370E+03,   953.370E+03
C:/temp/Job-44.odb,Step-1,Increment      1: Step Time =    1.000,"P-44-1",           545,       195.081,       74.8675,            0.,NA,NA,"",   969.526E+03,   999.708E+03,   999.708E+03
C:/temp/Job-44.odb,Step-1,Increment      1: Step Time =    1.000,"P-44-1",           546,       84.9809,       195.026,            0.,NA,NA,"",   940.578E+03,   941.158E+03,   941.158E+03
C:/temp/Job-44.odb,Step-1,Increment      1: Step Time =    1.000,"P-44-1",           547,       195.056,       84.8275,            0.,NA,NA,"",   960.687E+03,   998.660E+03,   998.660E+03
C:/temp/Job-44.odb,Step-1,Increment      1: Step Time =    1.000,"P-44-1",           548,       195.044,       94.8164,            0.,NA,NA,"",   955.362E+03,   997.906E+03,   997.906E+03
C:/temp/Job-44.odb,Step-1,Increment      1: Step Time =    1.000,"P-44-1",           549,       194.928,       104.868,            0.,NA,NA,"",   955.181E+03,   997.685E+03,   997.685E+03
C:/temp/Job-44.odb,Step-1,Increment      1: Step Time =    1.000,"P-44-1",           550,       194.745,       114.977,            0.,NA,NA,"",   960.564E+03,   998.497E+03,   998.497E+03
C:/temp/Job-44.odb,Step-1,Increment      1: Step Time =    1.000,"P-44-1",           551,       194.949,       125.043,            0.,NA,NA,"",   969.245E+03,   999.645E+03,   999.645E+03
C:/temp/Job-44.odb,Step-1,Increment      1: Step Time =    1.000,"P-44-1",           552,       195.273,       135.007,            0.,NA,NA,"",   979.105E+03,   1.00064E+06,   1.00064E+06
C:/temp/Job-44.odb,Step-1,Increment      1: Step Time =    1.000,"P-44-1",           553,       195.547,       144.776,            0.,NA,NA,"",   987.633E+03,   1.00080E+06,   1.00080E+06
C:/temp/Job-44.odb,Step-1,Increment      1: Step Time =    1.000,"P-44-1",           554,       194.941,       194.920,            0.,NA,NA,"",   999.957E+03,   999.912E+03,   999.912E+03
C:/temp/Job-44.odb,Step-1,Increment      1: Step Time =    1.000,"P-44-1",           555,       184.811,       194.784,            0.,NA,NA,"",   999.688E+03,   999.682E+03,   999.682E+03
C:/temp/Job-44.odb,Step-1,Increment      1: Step Time =    1.000,"P-44-1",           556,       174.688,       194.934,            0.,NA,NA,"",   999.314E+03,   999.191E+03,   999.191E+03
C:/temp/Job-44.odb,Step-1,Increment      1: Step Time =    1.000,"P-44-1",           557,       164.672,       195.112,            0.,NA,NA,"",   997.671E+03,   997.374E+03,   997.374E+03
C:/temp/Job-44.odb,Step-1,Increment      1: Step Time =    1.000,"P-44-1",           558,       154.795,       195.069,            0.,NA,NA,"",   993.189E+03,   992.761E+03,   992.761E+03
C:/temp/Job-44.odb,Step-1,Increment      1: Step Time =    1.000,"P-44-1",           559,       144.911,       195.041,            0.,NA,NA,"",   984.698E+03,   984.263E+03,   984.263E+03
C:/temp/Job-44.odb,Step-1,Increment      1: Step Time =    1.000,"P-44-1",           560,       134.999,       195.045,            0.,NA,NA,"",   972.210E+03,   971.943E+03,   971.943E+03
C:/temp/Job-44.odb,Step-1,Increment      1: Step Time =    1.000,"P-44-1",           561,       125.054,       195.028,            0.,NA,NA,"",   957.501E+03,   957.567E+03,   957.567E+03
C:/temp/Job-44.odb,Step-1,Increment      1: Step Time =    1.000,"P-44-1",           562,       115.051,       194.993,            0.,NA,NA,"",   943.835E+03,   944.313E+03,   944.313E+03
C:/temp/Job-44.odb,Step-1,Increment      1: Step Time =    1.000,"P-44-1",           563,       105.009,       194.967,            0.,NA,NA,"",   935.097E+03,   935.873E+03,   935.873E+03
C:/temp/Job-44.odb,Step-1,Increment      1: Step Time =    1.000,"P-44-1",           564,       94.9775,       194.967,            0.,NA,NA,"",   933.956E+03,   934.764E+03,   934.764E+03
C:/temp/Job-44.odb,Step-1,Increment      1: Step Time =    1.000,"P-44-1",           565,       5.39941,       184.686,            0.,NA,NA,"",   1.07578E+06,   1.16484E+06,   1.16484E+06
C:/temp/Job-44.odb,Step-1,Increment      1: Step Time =    1.000,"P-44-1",           566,       5.32121,       174.380,            0.,NA,NA,"",   975.271E+03,   1.07188E+06,   1.07188E+06
C:/temp/Job-44.odb,Step-1,Increment      1: Step Time =    1.000,"P-44-1",           567,       4.87107,       164.374,            0.,NA,NA,"",   917.975E+03,   1.01824E+06,   1.01824E+06
C:/temp/Job-44.odb,Step-1,Increment      1: Step Time =    1.000,"P-44-1",           568,       4.72799,       154.555,            0.,NA,NA,"",   879.723E+03,   980.736E+03,   980.736E+03
C:/temp/Job-44.odb,Step-1,Increment      1: Step Time =    1.000,"P-44-1",           569,       4.67254,       144.784,            0.,NA,NA,"",   848.992E+03,   949.738E+03,   949.738E+03
C:/temp/Job-44.odb,Step-1,Increment      1: Step Time =    1.000,"P-44-1",           570,       4.65534,       134.981,            0.,NA,NA,"",   822.051E+03,   922.047E+03,   922.047E+03
C:/temp/Job-44.odb,Step-1,Increment      1: Step Time =    1.000,"P-44-1",           571,       4.75267,       125.145,            0.,NA,NA,"",   798.963E+03,   897.963E+03,   897.963E+03
C:/temp/Job-44.odb,Step-1,Increment      1: Step Time =    1.000,"P-44-1",           572,       4.91297,       115.151,            0.,NA,NA,"",   780.934E+03,   879.048E+03,   879.048E+03
C:/temp/Job-44.odb,Step-1,Increment      1: Step Time =    1.000,"P-44-1",           573,       5.02410,       105.127,            0.,NA,NA,"",   770.996E+03,   868.606E+03,   868.606E+03
C:/temp/Job-44.odb,Step-1,Increment      1: Step Time =    1.000,"P-44-1",           574,       5.04082,       95.1398,            0.,NA,NA,"",   770.678E+03,   868.246E+03,   868.246E+03
C:/temp/Job-44.odb,Step-1,Increment      1: Step Time =    1.000,"P-44-1",           575,       4.99260,       85.1345,            0.,NA,NA,"",   780.241E+03,   878.295E+03,   878.295E+03
C:/temp/Job-44.odb,Step-1,Increment      1: Step Time =    1.000,"P-44-1",           576,       4.61706,       75.2349,            0.,NA,NA,"",   797.116E+03,   896.185E+03,   896.185E+03
C:/temp/Job-44.odb,Step-1,Increment      1: Step Time =    1.000,"P-44-1",           577,       4.27812,       65.4346,            0.,NA,NA,"",   819.069E+03,   919.446E+03,   919.446E+03
C:/temp/Job-44.odb,Step-1,Increment      1: Step Time =    1.000,"P-44-1",           578,       4.33213,       55.6551,            0.,NA,NA,"",   845.838E+03,   947.013E+03,   947.013E+03
C:/temp/Job-44.odb,Step-1,Increment      1: Step Time =    1.000,"P-44-1",           579,       195.191,       154.610,            0.,NA,NA,"",   994.681E+03,   1.00110E+06,   1.00110E+06
C:/temp/Job-44.odb,Step-1,Increment      1: Step Time =    1.000,"P-44-1",           580,       194.758,       164.627,            0.,NA,NA,"",   998.757E+03,   1.00106E+06,   1.00106E+06
C:/temp/Job-44.odb,Step-1,Increment      1: Step Time =    1.000,"P-44-1",           581,       195.044,       174.869,            0.,NA,NA,"",   1.00021E+06,   1.00058E+06,   1.00058E+06
C:/temp/Job-44.odb,Step-1,Increment      1: Step Time =    1.000,"P-44-1",           582,       194.978,       184.905,            0.,NA,NA,"",   1.00029E+06,   1.00019E+06,   1.00019E+06
C:/temp/Job-44.odb,Step-1,Increment      1: Step Time =    1.000,"P-44-1",           583,       189.777,       5.16881,            0.,NA,NA,"",   999.764E+03,   999.748E+03,   999.748E+03
C:/temp/Job-44.odb,Step-1,Increment      1: Step Time =    1.000,"P-44-1",           584,       179.699,       5.08398,            0.,NA,NA,"",   999.352E+03,   999.292E+03,   999.292E+03
C:/temp/Job-44.odb,Step-1,Increment      1: Step Time =    1.000,"P-44-1",           585,       169.538,       4.97661,            0.,NA,NA,"",   998.319E+03,   998.100E+03,   998.100E+03
C:/temp/Job-44.odb,Step-1,Increment      1: Step Time =    1.000,"P-44-1",           586,       159.463,       4.92743,            0.,NA,NA,"",   995.185E+03,   994.840E+03,   994.840E+03
C:/temp/Job-44.odb,Step-1,Increment      1: Step Time =    1.000,"P-44-1",           587,       149.758,       4.54546,            0.,NA,NA,"",   988.345E+03,   987.964E+03,   987.964E+03
C:/temp/Job-44.odb,Step-1,Increment      1: Step Time =    1.000,"P-44-1",           588,       140.011,       4.75620,            0.,NA,NA,"",   977.904E+03,   977.563E+03,   977.563E+03
C:/temp/Job-44.odb,Step-1,Increment      1: Step Time =    1.000,"P-44-1",           589,       130.012,       4.86926,            0.,NA,NA,"",   964.211E+03,   964.075E+03,   964.075E+03
C:/temp/Job-44.odb,Step-1,Increment      1: Step Time =    1.000,"P-44-1",           590,       119.933,       4.87008,            0.,NA,NA,"",   949.363E+03,   949.650E+03,   949.650E+03
C:/temp/Job-44.odb,Step-1,Increment      1: Step Time =    1.000,"P-44-1",           591,       109.916,       4.90829,            0.,NA,NA,"",   937.876E+03,   938.525E+03,   938.525E+03
C:/temp/Job-44.odb,Step-1,Increment      1: Step Time =    1.000,"P-44-1",           592,       99.9380,       4.96705,            0.,NA,NA,"",   933.203E+03,   934.017E+03,   934.017E+03
C:/temp/Job-44.odb,Step-1,Increment      1: Step Time =    1.000,"P-44-1",           593,       89.9090,       4.98383,            0.,NA,NA,"",   936.540E+03,   937.263E+03,   937.263E+03
C:/temp/Job-44.odb,Step-1,Increment      1: Step Time =    1.000,"P-44-1",           594,       79.8736,       4.93683,            0.,NA,NA,"",   947.097E+03,   947.509E+03,   947.509E+03
C:/temp/Job-44.odb,Step-1,Increment      1: Step Time =    1.000,"P-44-1",           595,       69.9038,       4.89392,            0.,NA,NA,"",   962.314E+03,   962.409E+03,   962.409E+03
C:/temp/Job-44.odb,Step-1,Increment      1: Step Time =    1.000,"P-44-1",           596,       60.0087,       4.86655,            0.,NA,NA,"",   979.387E+03,   979.358E+03,   979.358E+03
C:/temp/Job-44.odb,Step-1,Increment      1: Step Time =    1.000,"P-44-1",           597,       50.1597,       4.81825,            0.,NA,NA,"",   997.299E+03,   997.385E+03,   997.385E+03
C:/temp/Job-44.odb,Step-1,Increment      1: Step Time =    1.000,"P-44-1",           598,       40.3160,       4.75113,            0.,NA,NA,"",   1.01807E+06,   1.01864E+06,   1.01864E+06
C:/temp/Job-44.odb,Step-1,Increment      1: Step Time =    1.000,"P-44-1",           599,       30.3635,       4.79446,            0.,NA,NA,"",   1.04938E+06,   1.05115E+06,   1.05115E+06
C:/temp/Job-44.odb,Step-1,Increment      1: Step Time =    1.000,"P-44-1",           600,       20.3221,       4.92837,            0.,NA,NA,"",   1.10785E+06,   1.11236E+06,   1.11236E+06
C:/temp/Job-44.odb,Step-1,Increment      1: Step Time =    1.000,"P-44-1",           601,       10.2401,       5.06138,            0.,NA,NA,"",   1.24481E+06,   1.25881E+06,   1.25881E+06
C:/temp/Job-44.odb,Step-1,Increment      1: Step Time =    1.000,"P-44-1",           602,       194.941,       189.894,            0.,NA,NA,"",   1.00014E+06,   1.00004E+06,   1.00004E+06
C:/temp/Job-44.odb,Step-1,Increment      1: Step Time =    1.000,"P-44-1",           603,       195.032,       179.915,            0.,NA,NA,"",   1.00035E+06,   1.00036E+06,   1.00036E+06
C:/temp/Job-44.odb,Step-1,Increment      1: Step Time =    1.000,"P-44-1",           604,       194.938,       169.780,            0.,NA,NA,"",   999.762E+03,   1.00084E+06,   1.00084E+06
C:/temp/Job-44.odb,Step-1,Increment      1: Step Time =    1.000,"P-44-1",           605,       194.676,       159.524,            0.,NA,NA,"",   997.149E+03,   1.00118E+06,   1.00118E+06
C:/temp/Job-44.odb,Step-1,Increment      1: Step Time =    1.000,"P-44-1",           606,       195.498,       149.647,            0.,NA,NA,"",   991.324E+03,   1.00087E+06,   1.00087E+06
C:/temp/Job-44.odb,Step-1,Increment      1: Step Time =    1.000,"P-44-1",           607,       195.431,       139.906,            0.,NA,NA,"",   983.588E+03,   1.00078E+06,   1.00078E+06
C:/temp/Job-44.odb,Step-1,Increment      1: Step Time =    1.000,"P-44-1",           608,       195.103,       130.050,            0.,NA,NA,"",   974.272E+03,   1.00028E+06,   1.00028E+06
C:/temp/Job-44.odb,Step-1,Increment      1: Step Time =    1.000,"P-44-1",           609,       194.801,       120.002,            0.,NA,NA,"",   964.557E+03,   999.021E+03,   999.021E+03
C:/temp/Job-44.odb,Step-1,Increment      1: Step Time =    1.000,"P-44-1",           610,       194.811,       109.942,            0.,NA,NA,"",   957.267E+03,   997.946E+03,   997.946E+03
C:/temp/Job-44.odb,Step-1,Increment      1: Step Time =    1.000,"P-44-1",           611,       195.009,       99.8315,            0.,NA,NA,"",   954.606E+03,   997.757E+03,   997.757E+03
C:/temp/Job-44.odb,Step-1,Increment      1: Step Time =    1.000,"P-44-1",           612,       195.057,       89.8216,            0.,NA,NA,"",   957.454E+03,   998.220E+03,   998.220E+03
C:/temp/Job-44.odb,Step-1,Increment      1: Step Time =    1.000,"P-44-1",           613,       195.069,       79.8406,            0.,NA,NA,"",   964.818E+03,   999.187E+03,   999.187E+03
C:/temp/Job-44.odb,Step-1,Increment      1: Step Time =    1.000,"P-44-1",           614,       195.102,       69.9078,            0.,NA,NA,"",   974.525E+03,   1.00020E+06,   1.00020E+06
C:/temp/Job-44.odb,Step-1,Increment      1: Step Time =    1.000,"P-44-1",           615,       195.134,       60.0419,            0.,NA,NA,"",   984.146E+03,   1.00086E+06,   1.00086E+06
C:/temp/Job-44.odb,Step-1,Increment      1: Step Time =    1.000,"P-44-1",           616,       195.182,       50.2120,            0.,NA,NA,"",   991.942E+03,   1.00109E+06,   1.00109E+06
C:/temp/Job-44.odb,Step-1,Increment      1: Step Time =    1.000,"P-44-1",           617,       195.214,       40.3820,            0.,NA,NA,"",   997.135E+03,   1.00100E+06,   1.00100E+06
C:/temp/Job-44.odb,Step-1,Increment      1: Step Time =    1.000,"P-44-1",           618,       195.064,       30.4840,            0.,NA,NA,"",   999.799E+03,   1.00078E+06,   1.00078E+06
C:/temp/Job-44.odb,Step-1,Increment      1: Step Time =    1.000,"P-44-1",           619,       194.673,       20.4028,            0.,NA,NA,"",   1.00044E+06,   1.00041E+06,   1.00041E+06
C:/temp/Job-44.odb,Step-1,Increment      1: Step Time =    1.000,"P-44-1",           620,       194.736,       10.2243,            0.,NA,NA,"",   1.00016E+06,   1.00005E+06,   1.00005E+06
C:/temp/Job-44.odb,Step-1,Increment      1: Step Time =    1.000,"P-44-1",           621,       10.1701,       194.861,            0.,NA,NA,"",   1.24528E+06,   1.25986E+06,   1.25986E+06
C:/temp/Job-44.odb,Step-1,Increment      1: Step Time =    1.000,"P-44-1",           622,       20.2715,       194.751,            0.,NA,NA,"",   1.10903E+06,   1.11410E+06,   1.11410E+06
C:/temp/Job-44.odb,Step-1,Increment      1: Step Time =    1.000,"P-44-1",           623,       30.3246,       194.762,            0.,NA,NA,"",   1.05083E+06,   1.05298E+06,   1.05298E+06
C:/temp/Job-44.odb,Step-1,Increment      1: Step Time =    1.000,"P-44-1",           624,       40.4634,       194.740,            0.,NA,NA,"",   1.01889E+06,   1.01966E+06,   1.01966E+06
C:/temp/Job-44.odb,Step-1,Increment      1: Step Time =    1.000,"P-44-1",           625,       50.3170,       195.425,            0.,NA,NA,"",   994.909E+03,   995.079E+03,   995.079E+03
C:/temp/Job-44.odb,Step-1,Increment      1: Step Time =    1.000,"P-44-1",           626,       60.0774,       195.361,            0.,NA,NA,"",   977.365E+03,   977.352E+03,   977.352E+03
C:/temp/Job-44.odb,Step-1,Increment      1: Step Time =    1.000,"P-44-1",           627,       70.0298,       195.219,            0.,NA,NA,"",   960.810E+03,   960.907E+03,   960.907E+03
C:/temp/Job-44.odb,Step-1,Increment      1: Step Time =    1.000,"P-44-1",           628,       79.9953,       195.084,            0.,NA,NA,"",   946.276E+03,   946.681E+03,   946.681E+03
C:/temp/Job-44.odb,Step-1,Increment      1: Step Time =    1.000,"P-44-1",           629,       89.9787,       194.989,            0.,NA,NA,"",   936.374E+03,   937.093E+03,   937.093E+03
C:/temp/Job-44.odb,Step-1,Increment      1: Step Time =    1.000,"P-44-1",           630,       99.9879,       194.964,            0.,NA,NA,"",   933.505E+03,   934.336E+03,   934.336E+03
C:/temp/Job-44.odb,Step-1,Increment      1: Step Time =    1.000,"P-44-1",           631,       110.033,       194.979,            0.,NA,NA,"",   938.633E+03,   939.294E+03,   939.294E+03
C:/temp/Job-44.odb,Step-1,Increment      1: Step Time =    1.000,"P-44-1",           632,       120.064,       195.009,            0.,NA,NA,"",   950.289E+03,   950.567E+03,   950.567E+03
C:/temp/Job-44.odb,Step-1,Increment      1: Step Time =    1.000,"P-44-1",           633,       130.034,       195.036,            0.,NA,NA,"",   964.956E+03,   964.838E+03,   964.838E+03
C:/temp/Job-44.odb,Step-1,Increment      1: Step Time =    1.000,"P-44-1",           634,       139.959,       195.039,            0.,NA,NA,"",   978.889E+03,   978.513E+03,   978.513E+03
C:/temp/Job-44.odb,Step-1,Increment      1: Step Time =    1.000,"P-44-1",           635,       149.855,       195.045,            0.,NA,NA,"",   989.482E+03,   989.028E+03,   989.028E+03
C:/temp/Job-44.odb,Step-1,Increment      1: Step Time =    1.000,"P-44-1",           636,       159.736,       195.107,            0.,NA,NA,"",   995.870E+03,   995.498E+03,   995.498E+03
C:/temp/Job-44.odb,Step-1,Increment      1: Step Time =    1.000,"P-44-1",           637,       169.650,       195.070,            0.,NA,NA,"",   998.761E+03,   998.548E+03,   998.548E+03
C:/temp/Job-44.odb,Step-1,Increment      1: Step Time =    1.000,"P-44-1",           638,       179.751,       194.804,            0.,NA,NA,"",   999.562E+03,   999.510E+03,   999.510E+03
C:/temp/Job-44.odb,Step-1,Increment      1: Step Time =    1.000,"P-44-1",           639,       189.887,       194.845,            0.,NA,NA,"",   999.808E+03,   999.804E+03,   999.804E+03
C:/temp/Job-44.odb,Step-1,Increment      1: Step Time =    1.000,"P-44-1",           640,       5.95876,       20.4965,            0.,NA,NA,"",   1.02296E+06,   1.11433E+06,   1.11433E+06
C:/temp/Job-44.odb,Step-1,Increment      1: Step Time =    1.000,"P-44-1",           641,       5.56386,       30.7073,            0.,NA,NA,"",   946.463E+03,   1.04391E+06,   1.04391E+06
C:/temp/Job-44.odb,Step-1,Increment      1: Step Time =    1.000,"P-44-1",           642,       5.59459,       41.0677,            0.,NA,NA,"",   899.326E+03,   998.629E+03,   998.629E+03
C:/temp/Job-44.odb,Step-1,Increment      1: Step Time =    1.000,"P-44-1",           643,       4.61739,       50.7828,            0.,NA,NA,"",   861.573E+03,   962.560E+03,   962.560E+03
C:/temp/Job-44.odb,Step-1,Increment      1: Step Time =    1.000,"P-44-1",           644,       4.23934,       60.5400,            0.,NA,NA,"",   831.811E+03,   932.709E+03,   932.709E+03
C:/temp/Job-44.odb,Step-1,Increment      1: Step Time =    1.000,"P-44-1",           645,       4.41274,       70.3275,            0.,NA,NA,"",   807.507E+03,   907.242E+03,   907.242E+03
C:/temp/Job-44.odb,Step-1,Increment      1: Step Time =    1.000,"P-44-1",           646,       4.83220,       80.1738,            0.,NA,NA,"",   787.915E+03,   886.409E+03,   886.409E+03
C:/temp/Job-44.odb,Step-1,Increment      1: Step Time =    1.000,"P-44-1",           647,       5.03438,       90.1237,            0.,NA,NA,"",   774.383E+03,   872.121E+03,   872.121E+03
C:/temp/Job-44.odb,Step-1,Increment      1: Step Time =    1.000,"P-44-1",           648,       5.04152,       100.139,            0.,NA,NA,"",   769.585E+03,   867.114E+03,   867.114E+03
C:/temp/Job-44.odb,Step-1,Increment      1: Step Time =    1.000,"P-44-1",           649,       4.98036,       110.127,            0.,NA,NA,"",   774.804E+03,   872.610E+03,   872.610E+03
C:/temp/Job-44.odb,Step-1,Increment      1: Step Time =    1.000,"P-44-1",           650,       4.82904,       120.163,            0.,NA,NA,"",   789.128E+03,   887.650E+03,   887.650E+03
C:/temp/Job-44.odb,Step-1,Increment      1: Step Time =    1.000,"P-44-1",           651,       4.68539,       130.078,            0.,NA,NA,"",   810.022E+03,   909.528E+03,   909.528E+03
C:/temp/Job-44.odb,Step-1,Increment      1: Step Time =    1.000,"P-44-1",           652,       4.64917,       139.878,            0.,NA,NA,"",   835.112E+03,   935.524E+03,   935.524E+03
C:/temp/Job-44.odb,Step-1,Increment      1: Step Time =    1.000,"P-44-1",           653,       4.68278,       149.675,            0.,NA,NA,"",   863.794E+03,   964.754E+03,   964.754E+03
C:/temp/Job-44.odb,Step-1,Increment      1: Step Time =    1.000,"P-44-1",           654,       4.76729,       159.451,            0.,NA,NA,"",   897.611E+03,   998.427E+03,   998.427E+03
C:/temp/Job-44.odb,Step-1,Increment      1: Step Time =    1.000,"P-44-1",           655,       5.03342,       169.332,            0.,NA,NA,"",   943.468E+03,   1.04237E+06,   1.04237E+06
C:/temp/Job-44.odb,Step-1,Increment      1: Step Time =    1.000,"P-44-1",           656,       5.57620,       179.470,            0.,NA,NA,"",   1.01990E+06,   1.11299E+06,   1.11299E+06
C:/temp/Job-44.odb,Step-1,Increment      1: Step Time =    1.000,"P-44-1",           657,       5.23549,       189.830,            0.,NA,NA,"",   1.18033E+06,   1.25886E+06,   1.25886E+06
C:/temp/Job-44.odb,Step-1,Increment      1: Step Time =    1.000,"P-44-1",           658,       120.770,       93.8694,            0.,NA,NA,"",   703.492E+03,   566.137E+03,   566.137E+03
C:/temp/Job-44.odb,Step-1,Increment      1: Step Time =    1.000,"P-44-1",           659,       78.8929,       109.838,            0.,NA,NA,"",   984.494E+03,   858.363E+03,   858.363E+03
C:/temp/Job-44.odb,Step-1,Increment      1: Step Time =    1.000,"P-44-1",           660,       121.880,       110.211,            0.,NA,NA,"",   982.824E+03,   841.878E+03,   841.878E+03
C:/temp/Job-44.odb,Step-1,Increment      1: Step Time =    1.000,"P-44-1",           661,       75.4553,       91.8769,            0.,NA,NA,"",   781.790E+03,   709.457E+03,   709.457E+03
C:/temp/Job-44.odb,Step-1,Increment      1: Step Time =    1.000,"P-44-1",           662,       88.9484,       86.0107,            0.,NA,NA,"",   1.39891E+06,   1.36242E+06,   1.36242E+06
C:/temp/Job-44.odb,Step-1,Increment      1: Step Time =    1.000,"P-44-1",           663,       111.647,       113.642,            0.,NA,NA,"",   1.35643E+06,   1.31731E+06,   1.31731E+06
C:/temp/Job-44.odb,Step-1,Increment      1: Step Time =    1.000,"P-44-1",           664,       114.713,       88.2106,            0.,NA,NA,"",   1.10445E+06,   994.361E+03,   994.361E+03
C:/temp/Job-44.odb,Step-1,Increment      1: Step Time =    1.000,"P-44-1",           665,       85.6316,       113.068,            0.,NA,NA,"",   1.16631E+06,   1.09219E+06,   1.09219E+06
C:/temp/Job-44.odb,Step-1,Increment      1: Step Time =    1.000,"P-44-1",           666,       140.080,       9.57034,            0.,NA,NA,"",   987.331E+03,   986.377E+03,   986.377E+03
C:/temp/Job-44.odb,Step-1,Increment      1: Step Time =    1.000,"P-44-1",           667,       130.001,       9.72349,            0.,NA,NA,"",   977.010E+03,   976.659E+03,   976.659E+03
C:/temp/Job-44.odb,Step-1,Increment      1: Step Time =    1.000,"P-44-1",           668,       119.832,       9.66218,            0.,NA,NA,"",   965.108E+03,   965.900E+03,   965.900E+03
C:/temp/Job-44.odb,Step-1,Increment      1: Step Time =    1.000,"P-44-1",           669,       109.821,       9.78811,            0.,NA,NA,"",   956.220E+03,   958.071E+03,   958.071E+03
C:/temp/Job-44.odb,Step-1,Increment      1: Step Time =    1.000,"P-44-1",           670,       99.8735,       9.93017,            0.,NA,NA,"",   953.418E+03,   955.732E+03,   955.732E+03
C:/temp/Job-44.odb,Step-1,Increment      1: Step Time =    1.000,"P-44-1",           671,       89.7984,       9.94863,            0.,NA,NA,"",   957.415E+03,   959.480E+03,   959.480E+03
C:/temp/Job-44.odb,Step-1,Increment      1: Step Time =    1.000,"P-44-1",           672,       79.7108,       9.87714,            0.,NA,NA,"",   967.812E+03,   968.998E+03,   968.998E+03
C:/temp/Job-44.odb,Step-1,Increment      1: Step Time =    1.000,"P-44-1",           673,       69.7879,       9.83473,            0.,NA,NA,"",   982.194E+03,   982.531E+03,   982.531E+03
C:/temp/Job-44.odb,Step-1,Increment      1: Step Time =    1.000,"P-44-1",           674,       59.9868,       9.81070,            0.,NA,NA,"",   998.345E+03,   998.362E+03,   998.362E+03
C:/temp/Job-44.odb,Step-1,Increment      1: Step Time =    1.000,"P-44-1",           675,       190.758,       139.930,            0.,NA,NA,"",   987.790E+03,   1.00223E+06,   1.00223E+06
C:/temp/Job-44.odb,Step-1,Increment      1: Step Time =    1.000,"P-44-1",           676,       190.145,       130.202,            0.,NA,NA,"",   979.547E+03,   1.00066E+06,   1.00066E+06
C:/temp/Job-44.odb,Step-1,Increment      1: Step Time =    1.000,"P-44-1",           677,       189.508,       120.044,            0.,NA,NA,"",   969.397E+03,   997.097E+03,   997.097E+03
C:/temp/Job-44.odb,Step-1,Increment      1: Step Time =    1.000,"P-44-1",           678,       189.620,       109.699,            0.,NA,NA,"",   960.797E+03,   994.016E+03,   994.016E+03
C:/temp/Job-44.odb,Step-1,Increment      1: Step Time =    1.000,"P-44-1",           679,       190.091,       99.5377,            0.,NA,NA,"",   958.031E+03,   993.663E+03,   993.663E+03
C:/temp/Job-44.odb,Step-1,Increment      1: Step Time =    1.000,"P-44-1",           680,       190.141,       89.5957,            0.,NA,NA,"",   961.463E+03,   994.974E+03,   994.974E+03
C:/temp/Job-44.odb,Step-1,Increment      1: Step Time =    1.000,"P-44-1",           681,       190.132,       79.6542,            0.,NA,NA,"",   969.636E+03,   997.696E+03,   997.696E+03
C:/temp/Job-44.odb,Step-1,Increment      1: Step Time =    1.000,"P-44-1",           682,       190.158,       69.7995,            0.,NA,NA,"",   979.616E+03,   1.00056E+06,   1.00056E+06
C:/temp/Job-44.odb,Step-1,Increment      1: Step Time =    1.000,"P-44-1",           683,       190.200,       60.0742,            0.,NA,NA,"",   988.611E+03,   1.00246E+06,   1.00246E+06
C:/temp/Job-44.odb,Step-1,Increment      1: Step Time =    1.000,"P-44-1",           684,       99.9816,       189.938,            0.,NA,NA,"",   953.919E+03,   956.285E+03,   956.285E+03
C:/temp/Job-44.odb,Step-1,Increment      1: Step Time =    1.000,"P-44-1",           685,       110.058,       189.971,            0.,NA,NA,"",   957.446E+03,   959.326E+03,   959.326E+03
C:/temp/Job-44.odb,Step-1,Increment      1: Step Time =    1.000,"P-44-1",           686,       120.113,       189.992,            0.,NA,NA,"",   966.731E+03,   967.525E+03,   967.525E+03
C:/temp/Job-44.odb,Step-1,Increment      1: Step Time =    1.000,"P-44-1",           687,       130.041,       189.995,            0.,NA,NA,"",   978.230E+03,   977.897E+03,   977.897E+03
C:/temp/Job-44.odb,Step-1,Increment      1: Step Time =    1.000,"P-44-1",           688,       139.902,       189.981,            0.,NA,NA,"",   988.673E+03,   987.596E+03,   987.596E+03
C:/temp/Job-44.odb,Step-1,Increment      1: Step Time =    1.000,"P-44-1",           689,       8.48683,       61.1239,            0.,NA,NA,"",   844.658E+03,   940.335E+03,   940.335E+03
C:/temp/Job-44.odb,Step-1,Increment      1: Step Time =    1.000,"P-44-1",           690,       8.86192,       70.5434,            0.,NA,NA,"",   818.923E+03,   914.378E+03,   914.378E+03
C:/temp/Job-44.odb,Step-1,Increment      1: Step Time =    1.000,"P-44-1",           691,       9.76163,       80.1993,            0.,NA,NA,"",   798.016E+03,   892.772E+03,   892.772E+03
C:/temp/Job-44.odb,Step-1,Increment      1: Step Time =    1.000,"P-44-1",           692,       10.0966,       90.2759,            0.,NA,NA,"",   781.705E+03,   876.349E+03,   876.349E+03
C:/temp/Job-44.odb,Step-1,Increment      1: Step Time =    1.000,"P-44-1",           693,       10.1389,       100.323,            0.,NA,NA,"",   776.156E+03,   870.933E+03,   870.933E+03
C:/temp/Job-44.odb,Step-1,Increment      1: Step Time =    1.000,"P-44-1",           694,       9.97296,       110.336,            0.,NA,NA,"",   782.514E+03,   877.307E+03,   877.307E+03
C:/temp/Job-44.odb,Step-1,Increment      1: Step Time =    1.000,"P-44-1",           695,       9.63459,       120.425,            0.,NA,NA,"",   799.700E+03,   894.514E+03,   894.514E+03
C:/temp/Job-44.odb,Step-1,Increment      1: Step Time =    1.000,"P-44-1",           696,       9.42265,       130.228,            0.,NA,NA,"",   823.591E+03,   918.349E+03,   918.349E+03
C:/temp/Job-44.odb,Step-1,Increment      1: Step Time =    1.000,"P-44-1",           697,       9.37245,       139.758,            0.,NA,NA,"",   851.347E+03,   945.694E+03,   945.694E+03
C:/temp/Job-44.odb,Step-1,Increment      1: Step Time =    1.000,"P-44-1",           698,       60.1053,       190.662,            0.,NA,NA,"",   995.716E+03,   995.780E+03,   995.780E+03
C:/temp/Job-44.odb,Step-1,Increment      1: Step Time =    1.000,"P-44-1",           699,       70.0268,       190.435,            0.,NA,NA,"",   980.103E+03,   980.468E+03,   980.468E+03
C:/temp/Job-44.odb,Step-1,Increment      1: Step Time =    1.000,"P-44-1",           700,       79.9451,       190.158,            0.,NA,NA,"",   966.787E+03,   967.995E+03,   967.995E+03
C:/temp/Job-44.odb,Step-1,Increment      1: Step Time =    1.000,"P-44-1",           701,       89.9344,       189.971,            0.,NA,NA,"",   957.363E+03,   959.446E+03,   959.446E+03
C:/temp/Job-44.odb,Step-1,Increment      1: Step Time =    1.000,"P-44-1",           702,       97.8246,       76.7025,            0.,NA,NA,"",   1.37069E+06,   1.49941E+06,   1.49941E+06
C:/temp/Job-44.odb,Step-1,Increment      1: Step Time =    1.000,"P-44-1",           703,       91.3603,       77.9539,            0.,NA,NA,"",   1.34191E+06,   1.40074E+06,   1.40074E+06
C:/temp/Job-44.odb,Step-1,Increment      1: Step Time =    1.000,"P-44-1",           704,       107.615,       122.111,            0.,NA,NA,"",   1.33921E+06,   1.41791E+06,   1.41791E+06
C:/temp/Job-44.odb,Step-1,Increment      1: Step Time =    1.000,"P-44-1",           705,       109.980,       76.5306,            0.,NA,NA,"",   1.33745E+06,   1.37607E+06,   1.37607E+06
C:/temp/Job-44.odb,Step-1,Increment      1: Step Time =    1.000,"P-44-1",           706,       91.5108,       122.861,            0.,NA,NA,"",   1.32954E+06,   1.39426E+06,   1.39426E+06
C:/temp/Job-44.odb,Step-1,Increment      1: Step Time =    1.000,"P-44-1",           707,       100.618,       123.158,            0.,NA,NA,"",   1.35410E+06,   1.49077E+06,   1.49077E+06
C:/temp/Job-44.odb,Step-1,Increment      1: Step Time =    1.000,"P-44-1",           708,       9.64749,       163.645,            0.,NA,NA,"",   939.512E+03,   1.02920E+06,   1.02920E+06
C:/temp/Job-44.odb,Step-1,Increment      1: Step Time =    1.000,"P-44-1",           709,       164.004,       9.93867,            0.,NA,NA,"",   1.00020E+06,   999.344E+03,   999.344E+03
C:/temp/Job-44.odb,Step-1,Increment      1: Step Time =    1.000,"P-44-1",           710,       35.7437,       9.39342,            0.,NA,NA,"",   1.05028E+06,   1.05318E+06,   1.05318E+06
C:/temp/Job-44.odb,Step-1,Increment      1: Step Time =    1.000,"P-44-1",           711,       10.9888,       36.5977,            0.,NA,NA,"",   945.285E+03,   1.03193E+06,   1.03193E+06
C:/temp/Job-44.odb,Step-1,Increment      1: Step Time =    1.000,"P-44-1",           712,       164.366,       190.282,            0.,NA,NA,"",   1.00067E+06,   999.824E+03,   999.824E+03
C:/temp/Job-44.odb,Step-1,Increment      1: Step Time =    1.000,"P-44-1",           713,       189.551,       164.540,            0.,NA,NA,"",   1.00070E+06,   1.00290E+06,   1.00290E+06
C:/temp/Job-44.odb,Step-1,Increment      1: Step Time =    1.000,"P-44-1",           714,       190.440,       35.9546,            0.,NA,NA,"",   1.00027E+06,   1.00257E+06,   1.00257E+06
C:/temp/Job-44.odb,Step-1,Increment      1: Step Time =    1.000,"P-44-1",           715,       35.6942,       189.439,            0.,NA,NA,"",   1.05312E+06,   1.05678E+06,   1.05678E+06
C:/temp/Job-44.odb,Step-1,Increment      1: Step Time =    1.000,"P-44-1",           716,       59.9149,       14.8223,            0.,NA,NA,"",   1.01627E+06,   1.01648E+06,   1.01648E+06
C:/temp/Job-44.odb,Step-1,Increment      1: Step Time =    1.000,"P-44-1",           717,       12.6882,       61.7085,            0.,NA,NA,"",   857.819E+03,   947.726E+03,   947.726E+03
C:/temp/Job-44.odb,Step-1,Increment      1: Step Time =    1.000,"P-44-1",           718,       185.234,       60.0992,            0.,NA,NA,"",   994.600E+03,   1.00491E+06,   1.00491E+06
C:/temp/Job-44.odb,Step-1,Increment      1: Step Time =    1.000,"P-44-1",           719,       60.0952,       185.937,            0.,NA,NA,"",   1.01306E+06,   1.01330E+06,   1.01330E+06
C:/temp/Job-44.odb,Step-1,Increment      1: Step Time =    1.000,"P-44-1",           720,       140.165,       14.2868,            0.,NA,NA,"",   998.290E+03,   996.330E+03,   996.330E+03
C:/temp/Job-44.odb,Step-1,Increment      1: Step Time =    1.000,"P-44-1",           721,       14.1337,       139.646,            0.,NA,NA,"",   868.660E+03,   955.913E+03,   955.913E+03
C:/temp/Job-44.odb,Step-1,Increment      1: Step Time =    1.000,"P-44-1",           722,       185.920,       140.177,            0.,NA,NA,"",   993.604E+03,   1.00451E+06,   1.00451E+06
C:/temp/Job-44.odb,Step-1,Increment      1: Step Time =    1.000,"P-44-1",           723,       139.818,       184.807,            0.,NA,NA,"",   1.00031E+06,   998.131E+03,   998.131E+03
C:/temp/Job-44.odb,Step-1,Increment      1: Step Time =    1.000,"P-44-1",           724,       14.3107,       162.911,            0.,NA,NA,"",   959.786E+03,   1.03830E+06,   1.03830E+06
C:/temp/Job-44.odb,Step-1,Increment      1: Step Time =    1.000,"P-44-1",           725,       163.761,       14.6780,            0.,NA,NA,"",   1.00475E+06,   1.00307E+06,   1.00307E+06
C:/temp/Job-44.odb,Step-1,Increment      1: Step Time =    1.000,"P-44-1",           726,       36.0931,       13.7773,            0.,NA,NA,"",   1.06033E+06,   1.06619E+06,   1.06619E+06
C:/temp/Job-44.odb,Step-1,Increment      1: Step Time =    1.000,"P-44-1",           727,       15.8392,       36.4804,            0.,NA,NA,"",   969.632E+03,   1.04369E+06,   1.04369E+06
C:/temp/Job-44.odb,Step-1,Increment      1: Step Time =    1.000,"P-44-1",           728,       164.171,       185.533,            0.,NA,NA,"",   1.00497E+06,   1.00331E+06,   1.00331E+06
C:/temp/Job-44.odb,Step-1,Increment      1: Step Time =    1.000,"P-44-1",           729,       184.754,       165.242,            0.,NA,NA,"",   1.00410E+06,   1.00535E+06,   1.00535E+06
C:/temp/Job-44.odb,Step-1,Increment      1: Step Time =    1.000,"P-44-1",           730,       185.863,       36.4478,            0.,NA,NA,"",   1.00344E+06,   1.00507E+06,   1.00507E+06
C:/temp/Job-44.odb,Step-1,Increment      1: Step Time =    1.000,"P-44-1",           731,       35.5357,       184.314,            0.,NA,NA,"",   1.06293E+06,   1.07081E+06,   1.07081E+06
C:/temp/Job-44.odb,Step-1,Increment      1: Step Time =    1.000,"P-44-1",           732,       129.898,       14.5524,            0.,NA,NA,"",   989.922E+03,   989.305E+03,   989.305E+03
C:/temp/Job-44.odb,Step-1,Increment      1: Step Time =    1.000,"P-44-1",           733,       14.2380,       130.470,            0.,NA,NA,"",   838.543E+03,   927.636E+03,   927.636E+03
C:/temp/Job-44.odb,Step-1,Increment      1: Step Time =    1.000,"P-44-1",           734,       13.3004,       70.6082,            0.,NA,NA,"",   831.187E+03,   921.709E+03,   921.709E+03
C:/temp/Job-44.odb,Step-1,Increment      1: Step Time =    1.000,"P-44-1",           735,       69.6650,       14.8133,            0.,NA,NA,"",   1.00077E+06,   1.00154E+06,   1.00154E+06
C:/temp/Job-44.odb,Step-1,Increment      1: Step Time =    1.000,"P-44-1",           736,       69.9944,       185.675,            0.,NA,NA,"",   997.853E+03,   998.698E+03,   998.698E+03
C:/temp/Job-44.odb,Step-1,Increment      1: Step Time =    1.000,"P-44-1",           737,       185.193,       69.6871,            0.,NA,NA,"",   985.023E+03,   1.00116E+06,   1.00116E+06
C:/temp/Job-44.odb,Step-1,Increment      1: Step Time =    1.000,"P-44-1",           738,       185.160,       130.414,            0.,NA,NA,"",   985.059E+03,   1.00125E+06,   1.00125E+06
C:/temp/Job-44.odb,Step-1,Increment      1: Step Time =    1.000,"P-44-1",           739,       129.980,       184.832,            0.,NA,NA,"",   992.081E+03,   991.433E+03,   991.433E+03
C:/temp/Job-44.odb,Step-1,Increment      1: Step Time =    1.000,"P-44-1",           740,       123.388,       96.7308,            0.,NA,NA,"",   495.324E+03,   438.378E+03,   438.378E+03
C:/temp/Job-44.odb,Step-1,Increment      1: Step Time =    1.000,"P-44-1",           741,       74.7854,       100.028,            0.,NA,NA,"",   411.226E+03,   425.362E+03,   425.362E+03
C:/temp/Job-44.odb,Step-1,Increment      1: Step Time =    1.000,"P-44-1",           742,       80.6044,       96.7044,            0.,NA,NA,"",   474.467E+03,   28.0709E+03,   28.0709E+03
C:/temp/Job-44.odb,Step-1,Increment      1: Step Time =    1.000,"P-44-1",           743,       121.972,       103.320,            0.,NA,NA,"",   487.829E+03,   256.386E+03,   256.386E+03
C:/temp/Job-44.odb,Step-1,Increment      1: Step Time =    1.000,"P-44-1",           744,       14.6871,       79.9005,            0.,NA,NA,"",   809.359E+03,   899.674E+03,   899.674E+03
C:/temp/Job-44.odb,Step-1,Increment      1: Step Time =    1.000,"P-44-1",           745,       119.680,       14.3256,            0.,NA,NA,"",   979.091E+03,   980.650E+03,   980.650E+03
C:/temp/Job-44.odb,Step-1,Increment      1: Step Time =    1.000,"P-44-1",           746,       79.5223,       14.8222,            0.,NA,NA,"",   986.159E+03,   988.541E+03,   988.541E+03
C:/temp/Job-44.odb,Step-1,Increment      1: Step Time =    1.000,"P-44-1",           747,       14.3812,       120.802,            0.,NA,NA,"",   811.245E+03,   901.594E+03,   901.594E+03
C:/temp/Job-44.odb,Step-1,Increment      1: Step Time =    1.000,"P-44-1",           748,       184.198,       120.285,            0.,NA,NA,"",   973.017E+03,   994.605E+03,   994.605E+03
C:/temp/Job-44.odb,Step-1,Increment      1: Step Time =    1.000,"P-44-1",           749,       79.8314,       185.215,            0.,NA,NA,"",   984.962E+03,   987.433E+03,   987.433E+03
C:/temp/Job-44.odb,Step-1,Increment      1: Step Time =    1.000,"P-44-1",           750,       185.201,       79.4437,            0.,NA,NA,"",    973.06E+03,   995.474E+03,   995.474E+03
C:/temp/Job-44.odb,Step-1,Increment      1: Step Time =    1.000,"P-44-1",           751,       120.108,       184.907,            0.,NA,NA,"",   981.910E+03,   983.529E+03,   983.529E+03
C:/temp/Job-44.odb,Step-1,Increment      1: Step Time =    1.000,"P-44-1",           752,       14.9899,       90.5896,            0.,NA,NA,"",   788.699E+03,   879.652E+03,   879.652E+03
C:/temp/Job-44.odb,Step-1,Increment      1: Step Time =    1.000,"P-44-1",           753,       109.725,       14.6238,            0.,NA,NA,"",   971.519E+03,   975.225E+03,   975.225E+03
C:/temp/Job-44.odb,Step-1,Increment      1: Step Time =    1.000,"P-44-1",           754,       89.6640,       14.8859,            0.,NA,NA,"",   974.711E+03,   978.867E+03,   978.867E+03
C:/temp/Job-44.odb,Step-1,Increment      1: Step Time =    1.000,"P-44-1",           755,       14.9916,       110.693,            0.,NA,NA,"",   790.857E+03,   881.805E+03,   881.805E+03
C:/temp/Job-44.odb,Step-1,Increment      1: Step Time =    1.000,"P-44-1",           756,       184.589,       109.003,            0.,NA,NA,"",   960.535E+03,   988.082E+03,   988.082E+03
C:/temp/Job-44.odb,Step-1,Increment      1: Step Time =    1.000,"P-44-1",           757,       89.8571,       184.942,            0.,NA,NA,"",   974.872E+03,   979.076E+03,   979.076E+03
C:/temp/Job-44.odb,Step-1,Increment      1: Step Time =    1.000,"P-44-1",           758,       185.244,       89.3112,            0.,NA,NA,"",   962.541E+03,   990.051E+03,   990.051E+03
C:/temp/Job-44.odb,Step-1,Increment      1: Step Time =    1.000,"P-44-1",           759,       110.049,       184.951,            0.,NA,NA,"",   973.291E+03,   977.068E+03,   977.068E+03
C:/temp/Job-44.odb,Step-1,Increment      1: Step Time =    1.000,"P-44-1",           760,       93.2421,       74.5043,            0.,NA,NA,"",   1.26206E+06,   1.34451E+06,   1.34451E+06
C:/temp/Job-44.odb,Step-1,Increment      1: Step Time =    1.000,"P-44-1",           761,       105.287,       125.343,            0.,NA,NA,"",   1.24442E+06,   1.34462E+06,   1.34462E+06
C:/temp/Job-44.odb,Step-1,Increment      1: Step Time =    1.000,"P-44-1",           762,       89.1522,       80.6792,            0.,NA,NA,"",   1.40796E+06,   1.41276E+06,   1.41276E+06
C:/temp/Job-44.odb,Step-1,Increment      1: Step Time =    1.000,"P-44-1",           763,       95.8232,       123.654,            0.,NA,NA,"",   1.25650E+06,   1.37461E+06,   1.37461E+06
C:/temp/Job-44.odb,Step-1,Increment      1: Step Time =    1.000,"P-44-1",           764,       110.511,       119.520,            0.,NA,NA,"",   1.40718E+06,   1.42465E+06,   1.42465E+06
C:/temp/Job-44.odb,Step-1,Increment      1: Step Time =    1.000,"P-44-1",           765,       99.8085,       14.9031,            0.,NA,NA,"",    969.91E+03,   974.543E+03,   974.543E+03
C:/temp/Job-44.odb,Step-1,Increment      1: Step Time =    1.000,"P-44-1",           766,       15.3824,       100.529,            0.,NA,NA,"",   783.071E+03,   874.255E+03,   874.255E+03
C:/temp/Job-44.odb,Step-1,Increment      1: Step Time =    1.000,"P-44-1",           767,       185.236,       99.0896,            0.,NA,NA,"",   957.720E+03,   987.421E+03,   987.421E+03
C:/temp/Job-44.odb,Step-1,Increment      1: Step Time =    1.000,"P-44-1",           768,       99.9639,       184.901,            0.,NA,NA,"",   970.491E+03,   975.242E+03,   975.242E+03
C:/temp/Job-44.odb,Step-1,Increment      1: Step Time =    1.000,"P-44-1",           769,       12.8523,       66.1503,            0.,NA,NA,"",   843.885E+03,   934.264E+03,   934.264E+03
C:/temp/Job-44.odb,Step-1,Increment      1: Step Time =    1.000,"P-44-1",           770,       64.7644,       14.8222,            0.,NA,NA,"",   1.00846E+06,   1.00881E+06,   1.00881E+06
C:/temp/Job-44.odb,Step-1,Increment      1: Step Time =    1.000,"P-44-1",           771,       185.225,       64.8879,            0.,NA,NA,"",   990.227E+03,   1.00333E+06,   1.00333E+06
C:/temp/Job-44.odb,Step-1,Increment      1: Step Time =    1.000,"P-44-1",           772,       65.0547,       185.864,            0.,NA,NA,"",   1.00513E+06,   1.00552E+06,   1.00552E+06
C:/temp/Job-44.odb,Step-1,Increment      1: Step Time =    1.000,"P-44-1",           773,       14.1797,       135.071,            0.,NA,NA,"",   852.933E+03,   941.249E+03,   941.249E+03
C:/temp/Job-44.odb,Step-1,Increment      1: Step Time =    1.000,"P-44-1",           774,       135.073,       14.6776,            0.,NA,NA,"",   994.630E+03,   993.188E+03,   993.188E+03
C:/temp/Job-44.odb,Step-1,Increment      1: Step Time =    1.000,"P-44-1",           775,       185.466,       135.363,            0.,NA,NA,"",   989.971E+03,   1.00334E+06,   1.00334E+06
C:/temp/Job-44.odb,Step-1,Increment      1: Step Time =    1.000,"P-44-1",           776,       134.882,       184.798,            0.,NA,NA,"",   996.557E+03,   995.031E+03,   995.031E+03
C:/temp/Job-44.odb,Step-1,Increment      1: Step Time =    1.000,"P-44-1",           777,       168.156,       19.0869,            0.,NA,NA,"",   1.00824E+06,   1.00622E+06,   1.00622E+06
C:/temp/Job-44.odb,Step-1,Increment      1: Step Time =    1.000,"P-44-1",           778,       14.5092,       167.473,            0.,NA,NA,"",   983.708E+03,   1.05835E+06,   1.05835E+06
C:/temp/Job-44.odb,Step-1,Increment      1: Step Time =    1.000,"P-44-1",           779,       31.2223,       13.8361,            0.,NA,NA,"",   1.07520E+06,   1.08407E+06,   1.08407E+06
C:/temp/Job-44.odb,Step-1,Increment      1: Step Time =    1.000,"P-44-1",           780,       15.6337,       32.0885,            0.,NA,NA,"",   990.721E+03,   1.06211E+06,   1.06211E+06
C:/temp/Job-44.odb,Step-1,Increment      1: Step Time =    1.000,"P-44-1",           781,       168.809,       185.715,            0.,NA,NA,"",   1.00415E+06,   1.00297E+06,   1.00297E+06
C:/temp/Job-44.odb,Step-1,Increment      1: Step Time =    1.000,"P-44-1",           782,       181.119,       170.329,            0.,NA,NA,"",   1.00624E+06,   1.00616E+06,   1.00616E+06
C:/temp/Job-44.odb,Step-1,Increment      1: Step Time =    1.000,"P-44-1",           783,       30.9224,       184.513,            0.,NA,NA,"",   1.07562E+06,   1.08656E+06,   1.08656E+06
C:/temp/Job-44.odb,Step-1,Increment      1: Step Time =    1.000,"P-44-1",           784,       185.752,       31.8872,            0.,NA,NA,"",   1.00347E+06,   1.00434E+06,   1.00434E+06
C:/temp/Job-44.odb,Step-1,Increment      1: Step Time =    1.000,"P-44-1",           785,       87.5081,       75.6553,            0.,NA,NA,"",   1.31537E+06,   1.32326E+06,   1.32326E+06
C:/temp/Job-44.odb,Step-1,Increment      1: Step Time =    1.000,"P-44-1",           786,       110.920,       124.901,            0.,NA,NA,"",   1.29662E+06,   1.32648E+06,   1.32648E+06
C:/temp/Job-44.odb,Step-1,Increment      1: Step Time =    1.000,"P-44-1",           787,       13.9199,       75.1575,            0.,NA,NA,"",   819.782E+03,   910.265E+03,   910.265E+03
C:/temp/Job-44.odb,Step-1,Increment      1: Step Time =    1.000,"P-44-1",           788,       74.5742,       14.8135,            0.,NA,NA,"",   993.263E+03,   994.744E+03,   994.744E+03
C:/temp/Job-44.odb,Step-1,Increment      1: Step Time =    1.000,"P-44-1",           789,       14.2706,       125.735,            0.,NA,NA,"",   824.378E+03,   914.163E+03,   914.163E+03
C:/temp/Job-44.odb,Step-1,Increment      1: Step Time =    1.000,"P-44-1",           790,       124.721,       14.3476,            0.,NA,NA,"",   984.373E+03,   984.813E+03,   984.813E+03
C:/temp/Job-44.odb,Step-1,Increment      1: Step Time =    1.000,"P-44-1",           791,       184.773,       125.400,            0.,NA,NA,"",   979.392E+03,   998.414E+03,   998.414E+03
C:/temp/Job-44.odb,Step-1,Increment      1: Step Time =    1.000,"P-44-1",           792,       125.043,       184.845,            0.,NA,NA,"",   987.113E+03,   987.533E+03,   987.533E+03
C:/temp/Job-44.odb,Step-1,Increment      1: Step Time =    1.000,"P-44-1",           793,       185.208,       74.5450,            0.,NA,NA,"",   979.169E+03,   998.467E+03,   998.467E+03
C:/temp/Job-44.odb,Step-1,Increment      1: Step Time =    1.000,"P-44-1",           794,       74.8974,       185.441,            0.,NA,NA,"",   991.177E+03,   992.743E+03,   992.743E+03
C:/temp/Job-44.odb,Step-1,Increment      1: Step Time =    1.000,"P-44-1",           795,       70.7946,       99.5459,            0.,NA,NA,"",   510.738E+03,   541.821E+03,   541.821E+03
C:/temp/Job-44.odb,Step-1,Increment      1: Step Time =    1.000,"P-44-1",           796,       130.004,       97.2797,            0.,NA,NA,"",   604.525E+03,   604.068E+03,   604.068E+03
C:/temp/Job-44.odb,Step-1,Increment      1: Step Time =    1.000,"P-44-1",           797,       84.5634,       14.8446,            0.,NA,NA,"",   979.780E+03,   983.138E+03,   983.138E+03
C:/temp/Job-44.odb,Step-1,Increment      1: Step Time =    1.000,"P-44-1",           798,       14.6326,       115.806,            0.,NA,NA,"",   799.859E+03,   890.574E+03,   890.574E+03
C:/temp/Job-44.odb,Step-1,Increment      1: Step Time =    1.000,"P-44-1",           799,       15.7886,       85.2998,            0.,NA,NA,"",   799.887E+03,   889.576E+03,   889.576E+03
C:/temp/Job-44.odb,Step-1,Increment      1: Step Time =    1.000,"P-44-1",           800,       114.674,       14.4296,            0.,NA,NA,"",   974.649E+03,   977.375E+03,   977.375E+03
C:/temp/Job-44.odb,Step-1,Increment      1: Step Time =    1.000,"P-44-1",           801,       185.228,       84.3671,            0.,NA,NA,"",   967.331E+03,   992.555E+03,   992.555E+03
C:/temp/Job-44.odb,Step-1,Increment      1: Step Time =    1.000,"P-44-1",           802,       115.077,       184.928,            0.,NA,NA,"",   977.059E+03,   979.857E+03,   979.857E+03
C:/temp/Job-44.odb,Step-1,Increment      1: Step Time =    1.000,"P-44-1",           803,       183.149,       114.535,            0.,NA,NA,"",   965.387E+03,   989.087E+03,   989.087E+03
C:/temp/Job-44.odb,Step-1,Increment      1: Step Time =    1.000,"P-44-1",           804,       84.8174,       185.053,            0.,NA,NA,"",   979.384E+03,    982.81E+03,    982.81E+03
C:/temp/Job-44.odb,Step-1,Increment      1: Step Time =    1.000,"P-44-1",           805,       94.7698,       14.9172,            0.,NA,NA,"",   971.465E+03,   976.033E+03,   976.033E+03
C:/temp/Job-44.odb,Step-1,Increment      1: Step Time =    1.000,"P-44-1",           806,       15.3405,       105.619,            0.,NA,NA,"",   785.268E+03,   876.352E+03,   876.352E+03
C:/temp/Job-44.odb,Step-1,Increment      1: Step Time =    1.000,"P-44-1",           807,       185.264,       94.1821,            0.,NA,NA,"",   959.237E+03,   988.294E+03,   988.294E+03
C:/temp/Job-44.odb,Step-1,Increment      1: Step Time =    1.000,"P-44-1",           808,       104.994,       184.922,            0.,NA,NA,"",   970.992E+03,   975.438E+03,   975.438E+03
C:/temp/Job-44.odb,Step-1,Increment      1: Step Time =    1.000,"P-44-1",           809,       104.767,       14.7844,            0.,NA,NA,"",   969.871E+03,   974.229E+03,   974.229E+03
C:/temp/Job-44.odb,Step-1,Increment      1: Step Time =    1.000,"P-44-1",           810,       15.1693,       95.5354,            0.,NA,NA,"",   783.769E+03,   875.013E+03,   875.013E+03
C:/temp/Job-44.odb,Step-1,Increment      1: Step Time =    1.000,"P-44-1",           811,       185.073,       103.941,            0.,NA,NA,"",   958.122E+03,   987.430E+03,   987.430E+03
C:/temp/Job-44.odb,Step-1,Increment      1: Step Time =    1.000,"P-44-1",           812,       94.9034,       184.895,            0.,NA,NA,"",   971.843E+03,   976.504E+03,   976.504E+03
C:/temp/Job-44.odb,Step-1,Increment      1: Step Time =    1.000,"P-44-1",           813,       85.6873,       78.7217,            0.,NA,NA,"",   1.33790E+06,   1.30855E+06,   1.30855E+06
C:/temp/Job-44.odb,Step-1,Increment      1: Step Time =    1.000,"P-44-1",           814,       75.4961,       109.309,            0.,NA,NA,"",   855.304E+03,   770.917E+03,   770.917E+03
C:/temp/Job-44.odb,Step-1,Increment      1: Step Time =    1.000,"P-44-1",           815,       122.872,       91.0167,            0.,NA,NA,"",   876.949E+03,   757.208E+03,   757.208E+03
C:/temp/Job-44.odb,Step-1,Increment      1: Step Time =    1.000,"P-44-1",           816,       80.7616,       87.5313,            0.,NA,NA,"",   1.08164E+06,   952.428E+03,   952.428E+03
C:/temp/Job-44.odb,Step-1,Increment      1: Step Time =    1.000,"P-44-1",           817,       118.627,       113.730,            0.,NA,NA,"",   1.23520E+06,   1.07982E+06,   1.07982E+06
C:/temp/Job-44.odb,Step-1,Increment      1: Step Time =    1.000,"P-44-1",           818,       79.7732,       112.686,            0.,NA,NA,"",   1.13260E+06,   994.048E+03,   994.048E+03
C:/temp/Job-44.odb,Step-1,Increment      1: Step Time =    1.000,"P-44-1",           819,       119.427,       90.8532,            0.,NA,NA,"",   959.940E+03,   771.768E+03,   771.768E+03
C:/temp/Job-44.odb,Step-1,Increment      1: Step Time =    1.000,"P-44-1",           820,       90.0788,       128.112,            0.,NA,NA,"",   1.22376E+06,   1.27806E+06,   1.27806E+06
C:/temp/Job-44.odb,Step-1,Increment      1: Step Time =    1.000,"P-44-1",           821,       113.440,       72.7214,            0.,NA,NA,"",   1.26263E+06,   1.27453E+06,   1.27453E+06
C:/temp/Job-44.odb,Step-1,Increment      1: Step Time =    1.000,"P-44-1",           822,       109.671,       19.3990,            0.,NA,NA,"",   984.398E+03,   990.550E+03,   990.550E+03
C:/temp/Job-44.odb,Step-1,Increment      1: Step Time =    1.000,"P-44-1",           823,       19.3493,       91.0115,            0.,NA,NA,"",   795.235E+03,   882.142E+03,   882.142E+03
C:/temp/Job-44.odb,Step-1,Increment      1: Step Time =    1.000,"P-44-1",           824,       179.935,       107.559,            0.,NA,NA,"",   956.597E+03,   979.940E+03,   979.940E+03
C:/temp/Job-44.odb,Step-1,Increment      1: Step Time =    1.000,"P-44-1",           825,       89.7254,       179.899,            0.,NA,NA,"",   989.717E+03,   996.680E+03,   996.680E+03
C:/temp/Job-44.odb,Step-1,Increment      1: Step Time =    1.000,"P-44-1",           826,       99.7550,       19.9311,            0.,NA,NA,"",   983.563E+03,   991.227E+03,   991.227E+03
C:/temp/Job-44.odb,Step-1,Increment      1: Step Time =    1.000,"P-44-1",           827,       20.9593,       100.640,            0.,NA,NA,"",   789.658E+03,   876.127E+03,   876.127E+03
C:/temp/Job-44.odb,Step-1,Increment      1: Step Time =    1.000,"P-44-1",           828,       180.374,       98.4876,            0.,NA,NA,"",   954.298E+03,   979.202E+03,   979.202E+03
C:/temp/Job-44.odb,Step-1,Increment      1: Step Time =    1.000,"P-44-1",           829,       99.9126,       179.823,            0.,NA,NA,"",   984.191E+03,   992.078E+03,   992.078E+03
C:/temp/Job-44.odb,Step-1,Increment      1: Step Time =    1.000,"P-44-1",           830,       17.0429,       58.4035,            0.,NA,NA,"",   885.876E+03,   968.050E+03,   968.050E+03
C:/temp/Job-44.odb,Step-1,Increment      1: Step Time =    1.000,"P-44-1",           831,       59.7755,       19.8852,            0.,NA,NA,"",   1.03220E+06,   1.03288E+06,   1.03288E+06
C:/temp/Job-44.odb,Step-1,Increment      1: Step Time =    1.000,"P-44-1",           832,       60.1322,       181.360,            0.,NA,NA,"",   1.02783E+06,   1.02842E+06,   1.02842E+06
C:/temp/Job-44.odb,Step-1,Increment      1: Step Time =    1.000,"P-44-1",           833,       180.301,       60.1280,            0.,NA,NA,"",   1.00178E+06,   1.00808E+06,   1.00808E+06
C:/temp/Job-44.odb,Step-1,Increment      1: Step Time =    1.000,"P-44-1",           834,       140.139,       18.1768,            0.,NA,NA,"",   1.00713E+06,   1.00424E+06,   1.00424E+06
C:/temp/Job-44.odb,Step-1,Increment      1: Step Time =    1.000,"P-44-1",           835,       18.7878,       139.579,            0.,NA,NA,"",   886.779E+03,   966.299E+03,   966.299E+03
C:/temp/Job-44.odb,Step-1,Increment      1: Step Time =    1.000,"P-44-1",           836,       180.524,       141.149,            0.,NA,NA,"",   1.00206E+06,   1.00819E+06,   1.00819E+06
C:/temp/Job-44.odb,Step-1,Increment      1: Step Time =    1.000,"P-44-1",           837,       139.696,       179.521,            0.,NA,NA,"",   1.01345E+06,   1.00977E+06,   1.00977E+06
C:/temp/Job-44.odb,Step-1,Increment      1: Step Time =    1.000,"P-44-1",           838,       15.1284,       171.943,            0.,NA,NA,"",   1.01384E+06,   1.08172E+06,   1.08172E+06
C:/temp/Job-44.odb,Step-1,Increment      1: Step Time =    1.000,"P-44-1",           839,       18.8059,       162.343,            0.,NA,NA,"",   978.072E+03,   1.04560E+06,   1.04560E+06
C:/temp/Job-44.odb,Step-1,Increment      1: Step Time =    1.000,"P-44-1",           840,       163.330,       19.3636,            0.,NA,NA,"",   1.01021E+06,   1.00749E+06,   1.00749E+06
C:/temp/Job-44.odb,Step-1,Increment      1: Step Time =    1.000,"P-44-1",           841,       36.3014,       17.6917,            0.,NA,NA,"",   1.06603E+06,   1.07478E+06,   1.07478E+06
C:/temp/Job-44.odb,Step-1,Increment      1: Step Time =    1.000,"P-44-1",           842,       20.3289,       32.6918,            0.,NA,NA,"",   1.00918E+06,   1.06728E+06,   1.06728E+06
C:/temp/Job-44.odb,Step-1,Increment      1: Step Time =    1.000,"P-44-1",           843,       26.2152,       14.2375,            0.,NA,NA,"",   1.09180E+06,   1.10633E+06,   1.10633E+06
C:/temp/Job-44.odb,Step-1,Increment      1: Step Time =    1.000,"P-44-1",           844,       16.2262,       27.8338,            0.,NA,NA,"",   1.01964E+06,   1.08387E+06,   1.08387E+06
C:/temp/Job-44.odb,Step-1,Increment      1: Step Time =    1.000,"P-44-1",           845,       164.304,       180.861,            0.,NA,NA,"",   1.00999E+06,   1.00738E+06,   1.00738E+06
C:/temp/Job-44.odb,Step-1,Increment      1: Step Time =    1.000,"P-44-1",           846,       180.257,       166.220,            0.,NA,NA,"",   1.00808E+06,   1.00798E+06,   1.00798E+06
C:/temp/Job-44.odb,Step-1,Increment      1: Step Time =    1.000,"P-44-1",           847,       173.604,       185.436,            0.,NA,NA,"",   1.00329E+06,   1.00255E+06,   1.00255E+06
C:/temp/Job-44.odb,Step-1,Increment      1: Step Time =    1.000,"P-44-1",           848,       181.454,       36.8501,            0.,NA,NA,"",   1.00793E+06,   1.00825E+06,   1.00825E+06
C:/temp/Job-44.odb,Step-1,Increment      1: Step Time =    1.000,"P-44-1",           849,       35.6970,       179.342,            0.,NA,NA,"",   1.06544E+06,   1.07799E+06,   1.07799E+06
C:/temp/Job-44.odb,Step-1,Increment      1: Step Time =    1.000,"P-44-1",           850,       26.0806,       184.344,            0.,NA,NA,"",   1.08886E+06,   1.10654E+06,   1.10654E+06
C:/temp/Job-44.odb,Step-1,Increment      1: Step Time =    1.000,"P-44-1",           851,       185.108,       27.1338,            0.,NA,NA,"",   1.00337E+06,   1.00367E+06,   1.00367E+06
C:/temp/Job-44.odb,Step-1,Increment      1: Step Time =    1.000,"P-44-1",           852,       17.7310,       70.4429,            0.,NA,NA,"",   844.958E+03,   929.718E+03,   929.718E+03
C:/temp/Job-44.odb,Step-1,Increment      1: Step Time =    1.000,"P-44-1",           853,       69.5566,       19.8027,            0.,NA,NA,"",   1.01773E+06,   1.01914E+06,   1.01914E+06
C:/temp/Job-44.odb,Step-1,Increment      1: Step Time =    1.000,"P-44-1",           854,       180.231,       130.581,            0.,NA,NA,"",   990.889E+03,   1.00218E+06,   1.00218E+06
C:/temp/Job-44.odb,Step-1,Increment      1: Step Time =    1.000,"P-44-1",           855,       129.809,       179.488,            0.,NA,NA,"",   1.00663E+06,   1.00558E+06,   1.00558E+06
C:/temp/Job-44.odb,Step-1,Increment      1: Step Time =    1.000,"P-44-1",           856,       129.489,       19.2038,            0.,NA,NA,"",   1.00235E+06,   1.00151E+06,   1.00151E+06
C:/temp/Job-44.odb,Step-1,Increment      1: Step Time =    1.000,"P-44-1",           857,       19.2359,       130.801,            0.,NA,NA,"",   855.661E+03,   937.818E+03,   937.818E+03
C:/temp/Job-44.odb,Step-1,Increment      1: Step Time =    1.000,"P-44-1",           858,       69.8856,       180.965,            0.,NA,NA,"",   1.01389E+06,   1.01545E+06,   1.01545E+06
C:/temp/Job-44.odb,Step-1,Increment      1: Step Time =    1.000,"P-44-1",           859,       180.247,       69.5863,            0.,NA,NA,"",   990.795E+03,   1.00207E+06,   1.00207E+06
C:/temp/Job-44.odb,Step-1,Increment      1: Step Time =    1.000,"P-44-1",           860,       20.5490,       82.9764,            0.,NA,NA,"",   813.375E+03,   898.235E+03,   898.235E+03
C:/temp/Job-44.odb,Step-1,Increment      1: Step Time =    1.000,"P-44-1",           861,       119.491,       18.8067,            0.,NA,NA,"",   991.737E+03,   994.218E+03,   994.218E+03
C:/temp/Job-44.odb,Step-1,Increment      1: Step Time =    1.000,"P-44-1",           862,       177.946,       116.810,            0.,NA,NA,"",   968.292E+03,   985.662E+03,   985.662E+03
C:/temp/Job-44.odb,Step-1,Increment      1: Step Time =    1.000,"P-44-1",           863,       79.6219,       180.228,            0.,NA,NA,"",   1.00142E+06,   1.00552E+06,   1.00552E+06
C:/temp/Job-44.odb,Step-1,Increment      1: Step Time =    1.000,"P-44-1",           864,       80.4442,       82.4258,            0.,NA,NA,"",   1.27433E+06,   1.18133E+06,   1.18133E+06
C:/temp/Job-44.odb,Step-1,Increment      1: Step Time =    1.000,"P-44-1",           865,       119.568,       120.910,            0.,NA,NA,"",   1.32429E+06,   1.23486E+06,   1.23486E+06
C:/temp/Job-44.odb,Step-1,Increment      1: Step Time =    1.000,"P-44-1",           866,       125.533,       113.855,            0.,NA,NA,"",   1.08871E+06,   977.992E+03,   977.992E+03
C:/temp/Job-44.odb,Step-1,Increment      1: Step Time =    1.000,"P-44-1",           867,       70.2872,       91.4169,            0.,NA,NA,"",   752.794E+03,   742.670E+03,   742.670E+03
C:/temp/Job-44.odb,Step-1,Increment      1: Step Time =    1.000,"P-44-1",           868,       123.753,       83.3786,            0.,NA,NA,"",   1.19288E+06,   1.07432E+06,   1.07432E+06
C:/temp/Job-44.odb,Step-1,Increment      1: Step Time =    1.000,"P-44-1",           869,       77.2767,       118.936,            0.,NA,NA,"",   1.21584E+06,   1.13327E+06,   1.13327E+06
C:/temp/Job-44.odb,Step-1,Increment      1: Step Time =    1.000,"P-44-1",           870,       114.278,       79.2522,            0.,NA,NA,"",   1.42826E+06,   1.38542E+06,   1.38542E+06
C:/temp/Job-44.odb,Step-1,Increment      1: Step Time =    1.000,"P-44-1",           871,       87.3186,       121.608,            0.,NA,NA,"",   1.40096E+06,   1.39907E+06,   1.39907E+06
C:/temp/Job-44.odb,Step-1,Increment      1: Step Time =    1.000,"P-44-1",           872,       110.239,       69.6406,            0.,NA,NA,"",   1.20084E+06,   1.24529E+06,   1.24529E+06
C:/temp/Job-44.odb,Step-1,Increment      1: Step Time =    1.000,"P-44-1",           873,       89.7737,       133.350,            0.,NA,NA,"",   1.15664E+06,   1.20624E+06,   1.20624E+06
C:/temp/Job-44.odb,Step-1,Increment      1: Step Time =    1.000,"P-44-1",           874,       68.7551,       102.543,            0.,NA,NA,"",   557.041E+03,   591.729E+03,   591.729E+03
C:/temp/Job-44.odb,Step-1,Increment      1: Step Time =    1.000,"P-44-1",           875,       134.509,       95.1871,            0.,NA,NA,"",   724.092E+03,   722.865E+03,   722.865E+03
C:/temp/Job-44.odb,Step-1,Increment      1: Step Time =    1.000,"P-44-1",           876,       88.3122,       69.4984,            0.,NA,NA,"",   1.21305E+06,   1.24645E+06,   1.24645E+06
C:/temp/Job-44.odb,Step-1,Increment      1: Step Time =    1.000,"P-44-1",           877,       109.011,       130.047,            0.,NA,NA,"",   1.19713E+06,   1.25439E+06,   1.25439E+06
C:/temp/Job-44.odb,Step-1,Increment      1: Step Time =    1.000,"P-44-1",           878,       134.976,       104.936,            0.,NA,NA,"",   715.806E+03,   717.355E+03,   717.355E+03
C:/temp/Job-44.odb,Step-1,Increment      1: Step Time =    1.000,"P-44-1",           879,       69.2229,       96.1602,            0.,NA,NA,"",   610.140E+03,   632.552E+03,   632.552E+03
C:/temp/Job-44.odb,Step-1,Increment      1: Step Time =    1.000,"P-44-1",           880,       89.2855,       24.4714,            0.,NA,NA,"",   1.00154E+06,   1.01124E+06,   1.01124E+06
C:/temp/Job-44.odb,Step-1,Increment      1: Step Time =    1.000,"P-44-1",           881,       24.5987,       112.495,            0.,NA,NA,"",   810.077E+03,   891.264E+03,   891.264E+03
C:/temp/Job-44.odb,Step-1,Increment      1: Step Time =    1.000,"P-44-1",           882,       175.342,       88.5763,            0.,NA,NA,"",   958.071E+03,   976.076E+03,   976.076E+03
C:/temp/Job-44.odb,Step-1,Increment      1: Step Time =    1.000,"P-44-1",           883,       109.851,       174.810,            0.,NA,NA,"",   998.728E+03,   1.00806E+06,   1.00806E+06
C:/temp/Job-44.odb,Step-1,Increment      1: Step Time =    1.000,"P-44-1",           884,       24.5996,       78.2600,            0.,NA,NA,"",   837.195E+03,   915.406E+03,   915.406E+03
C:/temp/Job-44.odb,Step-1,Increment      1: Step Time =    1.000,"P-44-1",           885,       119.340,       23.1277,            0.,NA,NA,"",   1.00335E+06,   1.00677E+06,   1.00677E+06
C:/temp/Job-44.odb,Step-1,Increment      1: Step Time =    1.000,"P-44-1",           886,       79.1803,       24.7252,            0.,NA,NA,"",   1.01732E+06,   1.02310E+06,   1.02310E+06
C:/temp/Job-44.odb,Step-1,Increment      1: Step Time =    1.000,"P-44-1",           887,       23.5033,       121.773,            0.,NA,NA,"",   834.917E+03,   914.745E+03,   914.745E+03
C:/temp/Job-44.odb,Step-1,Increment      1: Step Time =    1.000,"P-44-1",           888,       174.118,       121.662,            0.,NA,NA,"",   979.312E+03,   989.913E+03,   989.913E+03
C:/temp/Job-44.odb,Step-1,Increment      1: Step Time =    1.000,"P-44-1",           889,       79.3158,       175.148,            0.,NA,NA,"",   1.01677E+06,   1.02272E+06,   1.02272E+06
C:/temp/Job-44.odb,Step-1,Increment      1: Step Time =    1.000,"P-44-1",           890,       175.397,       78.9495,            0.,NA,NA,"",   978.061E+03,   990.276E+03,   990.276E+03
C:/temp/Job-44.odb,Step-1,Increment      1: Step Time =    1.000,"P-44-1",           891,       119.724,       174.430,            0.,NA,NA,"",   1.01025E+06,   1.01441E+06,   1.01441E+06
C:/temp/Job-44.odb,Step-1,Increment      1: Step Time =    1.000,"P-44-1",           892,       175.400,       97.8660,            0.,NA,NA,"",   947.797E+03,   968.764E+03,   968.764E+03
C:/temp/Job-44.odb,Step-1,Increment      1: Step Time =    1.000,"P-44-1",           893,       99.8250,       174.681,            0.,NA,NA,"",   995.587E+03,   1.00738E+06,   1.00738E+06
C:/temp/Job-44.odb,Step-1,Increment      1: Step Time =    1.000,"P-44-1",           894,       99.7187,       25.1686,            0.,NA,NA,"",   995.083E+03,   1.00673E+06,   1.00673E+06
C:/temp/Job-44.odb,Step-1,Increment      1: Step Time =    1.000,"P-44-1",           895,       26.7594,       100.497,            0.,NA,NA,"",   794.438E+03,   875.528E+03,   875.528E+03
C:/temp/Job-44.odb,Step-1,Increment      1: Step Time =    1.000,"P-44-1",           896,       139.407,       24.0494,            0.,NA,NA,"",   1.02193E+06,   1.01733E+06,   1.01733E+06
C:/temp/Job-44.odb,Step-1,Increment      1: Step Time =    1.000,"P-44-1",           897,       23.9434,       143.348,            0.,NA,NA,"",   919.089E+03,   988.466E+03,   988.466E+03
C:/temp/Job-44.odb,Step-1,Increment      1: Step Time =    1.000,"P-44-1",           898,       60.4138,       177.055,            0.,NA,NA,"",   1.03968E+06,   1.04062E+06,   1.04062E+06
C:/temp/Job-44.odb,Step-1,Increment      1: Step Time =    1.000,"P-44-1",           899,       175.380,       60.1682,            0.,NA,NA,"",   1.01021E+06,   1.01209E+06,   1.01209E+06
C:/temp/Job-44.odb,Step-1,Increment      1: Step Time =    1.000,"P-44-1",           900,       25.5871,       57.5504,            0.,NA,NA,"",   923.721E+03,   989.758E+03,   989.758E+03
C:/temp/Job-44.odb,Step-1,Increment      1: Step Time =    1.000,"P-44-1",           901,       59.6293,       25.0241,            0.,NA,NA,"",   1.04603E+06,   1.04732E+06,   1.04732E+06
C:/temp/Job-44.odb,Step-1,Increment      1: Step Time =    1.000,"P-44-1",           902,       175.391,       139.725,            0.,NA,NA,"",   1.01006E+06,   1.01198E+06,   1.01198E+06
C:/temp/Job-44.odb,Step-1,Increment      1: Step Time =    1.000,"P-44-1",           903,       139.540,       174.184,            0.,NA,NA,"",   1.02765E+06,   1.02205E+06,   1.02205E+06
C:/temp/Job-44.odb,Step-1,Increment      1: Step Time =    1.000,"P-44-1",           904,       24.4924,       130.930,            0.,NA,NA,"",   872.891E+03,   947.051E+03,   947.051E+03
C:/temp/Job-44.odb,Step-1,Increment      1: Step Time =    1.000,"P-44-1",           905,       175.300,       69.5067,            0.,NA,NA,"",   997.083E+03,   1.00342E+06,   1.00342E+06
C:/temp/Job-44.odb,Step-1,Increment      1: Step Time =    1.000,"P-44-1",           906,       69.4732,       24.7288,            0.,NA,NA,"",   1.03311E+06,   1.03517E+06,   1.03517E+06
C:/temp/Job-44.odb,Step-1,Increment      1: Step Time =    1.000,"P-44-1",           907,       129.565,       173.954,            0.,NA,NA,"",   1.02260E+06,   1.02087E+06,   1.02087E+06
C:/temp/Job-44.odb,Step-1,Increment      1: Step Time =    1.000,"P-44-1",           908,       123.643,       124.263,            0.,NA,NA,"",   1.25871E+06,   1.18090E+06,   1.18090E+06
C:/temp/Job-44.odb,Step-1,Increment      1: Step Time =    1.000,"P-44-1",           909,       80.2785,       76.6847,            0.,NA,NA,"",   1.27650E+06,   1.22556E+06,   1.22556E+06
C:/temp/Job-44.odb,Step-1,Increment      1: Step Time =    1.000,"P-44-1",           910,       36.1553,       20.7476,            0.,NA,NA,"",   1.06574E+06,   1.07754E+06,   1.07754E+06
C:/temp/Job-44.odb,Step-1,Increment      1: Step Time =    1.000,"P-44-1",           911,       25.2468,       32.8358,            0.,NA,NA,"",   1.02406E+06,   1.06964E+06,   1.06964E+06
C:/temp/Job-44.odb,Step-1,Increment      1: Step Time =    1.000,"P-44-1",           912,       23.0737,       166.001,            0.,NA,NA,"",   1.01133E+06,   1.06434E+06,   1.06434E+06
C:/temp/Job-44.odb,Step-1,Increment      1: Step Time =    1.000,"P-44-1",           913,       163.058,       24.0969,            0.,NA,NA,"",   1.01608E+06,   1.01219E+06,   1.01219E+06
C:/temp/Job-44.odb,Step-1,Increment      1: Step Time =    1.000,"P-44-1",           914,       177.169,       37.0982,            0.,NA,NA,"",   1.01256E+06,   1.01140E+06,   1.01140E+06
C:/temp/Job-44.odb,Step-1,Increment      1: Step Time =    1.000,"P-44-1",           915,       36.0257,       174.393,            0.,NA,NA,"",   1.06025E+06,   1.07791E+06,   1.07791E+06
C:/temp/Job-44.odb,Step-1,Increment      1: Step Time =    1.000,"P-44-1",           916,       165.417,       175.875,            0.,NA,NA,"",   1.01475E+06,   1.01129E+06,   1.01129E+06
C:/temp/Job-44.odb,Step-1,Increment      1: Step Time =    1.000,"P-44-1",           917,       176.093,       167.357,            0.,NA,NA,"",   1.01195E+06,   1.01045E+06,   1.01045E+06
C:/temp/Job-44.odb,Step-1,Increment      1: Step Time =    1.000,"P-44-1",           918,       12.9011,       57.4118,            0.,NA,NA,"",   872.969E+03,   961.815E+03,   961.815E+03
C:/temp/Job-44.odb,Step-1,Increment      1: Step Time =    1.000,"P-44-1",           919,       55.1123,       14.7488,            0.,NA,NA,"",   1.02388E+06,   1.02438E+06,   1.02438E+06
C:/temp/Job-44.odb,Step-1,Increment      1: Step Time =    1.000,"P-44-1",           920,       186.696,       144.641,            0.,NA,NA,"",   996.377E+03,   1.00508E+06,   1.00508E+06
C:/temp/Job-44.odb,Step-1,Increment      1: Step Time =    1.000,"P-44-1",           921,       144.728,       184.809,            0.,NA,NA,"",   1.00307E+06,   1.00052E+06,   1.00052E+06
C:/temp/Job-44.odb,Step-1,Increment      1: Step Time =    1.000,"P-44-1",           922,       55.2445,       185.998,            0.,NA,NA,"",   1.02111E+06,   1.02153E+06,   1.02153E+06
C:/temp/Job-44.odb,Step-1,Increment      1: Step Time =    1.000,"P-44-1",           923,       185.324,       55.3290,            0.,NA,NA,"",   998.008E+03,   1.00586E+06,   1.00586E+06
C:/temp/Job-44.odb,Step-1,Increment      1: Step Time =    1.000,"P-44-1",           924,       145.072,       14.5378,            0.,NA,NA,"",   1.00082E+06,   998.558E+03,   998.558E+03
C:/temp/Job-44.odb,Step-1,Increment      1: Step Time =    1.000,"P-44-1",           925,       14.2503,       144.356,            0.,NA,NA,"",   885.603E+03,   971.613E+03,   971.613E+03
C:/temp/Job-44.odb,Step-1,Increment      1: Step Time =    1.000,"P-44-1",           926,       159.031,       14.9416,            0.,NA,NA,"",   1.00476E+06,   1.00276E+06,   1.00276E+06
C:/temp/Job-44.odb,Step-1,Increment      1: Step Time =    1.000,"P-44-1",           927,       14.2874,       158.268,            0.,NA,NA,"",   938.491E+03,   1.01963E+06,   1.01963E+06
C:/temp/Job-44.odb,Step-1,Increment      1: Step Time =    1.000,"P-44-1",           928,       172.864,       19.0712,            0.,NA,NA,"",   1.00640E+06,   1.00505E+06,   1.00505E+06
C:/temp/Job-44.odb,Step-1,Increment      1: Step Time =    1.000,"P-44-1",           929,       20.3790,       174.397,            0.,NA,NA,"",   1.04706E+06,   1.09550E+06,   1.09550E+06
C:/temp/Job-44.odb,Step-1,Increment      1: Step Time =    1.000,"P-44-1",           930,       174.176,       9.89421,            0.,NA,NA,"",   1.00078E+06,   1.00039E+06,   1.00039E+06
C:/temp/Job-44.odb,Step-1,Increment      1: Step Time =    1.000,"P-44-1",           931,       27.0617,       18.5698,            0.,NA,NA,"",   1.08125E+06,   1.10191E+06,   1.10191E+06
C:/temp/Job-44.odb,Step-1,Increment      1: Step Time =    1.000,"P-44-1",           932,       21.7733,       26.4333,            0.,NA,NA,"",   1.04514E+06,   1.09156E+06,   1.09156E+06
C:/temp/Job-44.odb,Step-1,Increment      1: Step Time =    1.000,"P-44-1",           933,       11.2824,       26.3633,            0.,NA,NA,"",   1.00398E+06,   1.08257E+06,   1.08257E+06
C:/temp/Job-44.odb,Step-1,Increment      1: Step Time =    1.000,"P-44-1",           934,       40.7601,       14.0344,            0.,NA,NA,"",   1.04937E+06,   1.05298E+06,   1.05298E+06
C:/temp/Job-44.odb,Step-1,Increment      1: Step Time =    1.000,"P-44-1",           935,       17.0421,       40.7803,            0.,NA,NA,"",   955.636E+03,   1.02942E+06,   1.02942E+06
C:/temp/Job-44.odb,Step-1,Increment      1: Step Time =    1.000,"P-44-1",           936,       190.235,       174.799,            0.,NA,NA,"",   1.00096E+06,   1.00157E+06,   1.00157E+06
C:/temp/Job-44.odb,Step-1,Increment      1: Step Time =    1.000,"P-44-1",           937,       181.311,       174.586,            0.,NA,NA,"",   1.00483E+06,   1.00466E+06,   1.00466E+06
C:/temp/Job-44.odb,Step-1,Increment      1: Step Time =    1.000,"P-44-1",           938,       176.073,       180.947,            0.,NA,NA,"",   1.00487E+06,   1.00408E+06,   1.00408E+06
C:/temp/Job-44.odb,Step-1,Increment      1: Step Time =    1.000,"P-44-1",           939,       159.422,       185.259,            0.,NA,NA,"",   1.00548E+06,   1.00338E+06,   1.00338E+06
C:/temp/Job-44.odb,Step-1,Increment      1: Step Time =    1.000,"P-44-1",           940,       183.262,       160.640,            0.,NA,NA,"",   1.00567E+06,   1.00721E+06,   1.00721E+06
C:/temp/Job-44.odb,Step-1,Increment      1: Step Time =    1.000,"P-44-1",           941,       27.0667,       179.546,            0.,NA,NA,"",   1.07384E+06,   1.09856E+06,   1.09856E+06
C:/temp/Job-44.odb,Step-1,Increment      1: Step Time =    1.000,"P-44-1",           942,       179.299,       25.5199,            0.,NA,NA,"",   1.00618E+06,   1.00557E+06,   1.00557E+06
C:/temp/Job-44.odb,Step-1,Increment      1: Step Time =    1.000,"P-44-1",           943,       185.773,       41.0968,            0.,NA,NA,"",   1.00307E+06,   1.00573E+06,   1.00573E+06
C:/temp/Job-44.odb,Step-1,Increment      1: Step Time =    1.000,"P-44-1",           944,       40.0178,       179.048,            0.,NA,NA,"",   1.05986E+06,   1.06892E+06,   1.06892E+06
C:/temp/Job-44.odb,Step-1,Increment      1: Step Time =    1.000,"P-44-1",           945,       25.5909,       189.517,            0.,NA,NA,"",   1.09290E+06,   1.10197E+06,   1.10197E+06
C:/temp/Job-44.odb,Step-1,Increment      1: Step Time =    1.000,"P-44-1",           946,       104.241,       66.6508,            0.,NA,NA,"",   1.10513E+06,   1.18595E+06,   1.18595E+06
C:/temp/Job-44.odb,Step-1,Increment      1: Step Time =    1.000,"P-44-1",           947,       94.8644,       133.517,            0.,NA,NA,"",   1.11221E+06,   1.19128E+06,   1.19128E+06
C:/temp/Job-44.odb,Step-1,Increment      1: Step Time =    1.000,"P-44-1",           948,       71.3550,       108.069,            0.,NA,NA,"",   733.485E+03,   709.980E+03,   709.980E+03
C:/temp/Job-44.odb,Step-1,Increment      1: Step Time =    1.000,"P-44-1",           949,       133.059,       90.9205,            0.,NA,NA,"",   835.212E+03,   806.075E+03,   806.075E+03
C:/temp/Job-44.odb,Step-1,Increment      1: Step Time =    1.000,"P-44-1",           950,       94.6359,       65.6925,            0.,NA,NA,"",   1.10412E+06,   1.18300E+06,   1.18300E+06
C:/temp/Job-44.odb,Step-1,Increment      1: Step Time =    1.000,"P-44-1",           951,       104.268,       134.122,            0.,NA,NA,"",   1.09753E+06,   1.18009E+06,   1.18009E+06
C:/temp/Job-44.odb,Step-1,Increment      1: Step Time =    1.000,"P-44-1",           952,       136.442,       99.0971,            0.,NA,NA,"",   688.007E+03,   702.436E+03,   702.436E+03
C:/temp/Job-44.odb,Step-1,Increment      1: Step Time =    1.000,"P-44-1",           953,       64.0790,       99.8653,            0.,NA,NA,"",   637.854E+03,   681.098E+03,   681.098E+03
C:/temp/Job-44.odb,Step-1,Increment      1: Step Time =    1.000,"P-44-1",           954,       65.7986,       90.8466,            0.,NA,NA,"",   770.784E+03,   783.237E+03,   783.237E+03
C:/temp/Job-44.odb,Step-1,Increment      1: Step Time =    1.000,"P-44-1",           955,       128.599,       110.660,            0.,NA,NA,"",   916.805E+03,   844.038E+03,   844.038E+03
C:/temp/Job-44.odb,Step-1,Increment      1: Step Time =    1.000,"P-44-1",           956,       116.838,       69.0983,            0.,NA,NA,"",   1.23192E+06,   1.22136E+06,   1.22136E+06
C:/temp/Job-44.odb,Step-1,Increment      1: Step Time =    1.000,"P-44-1",           957,       118.648,       82.2876,            0.,NA,NA,"",   1.32995E+06,   1.21256E+06,   1.21256E+06
C:/temp/Job-44.odb,Step-1,Increment      1: Step Time =    1.000,"P-44-1",           958,       83.9403,       119.265,            0.,NA,NA,"",   1.36058E+06,   1.29377E+06,   1.29377E+06
C:/temp/Job-44.odb,Step-1,Increment      1: Step Time =    1.000,"P-44-1",           959,       180.300,       79.2086,            0.,NA,NA,"",   975.645E+03,   992.843E+03,   992.843E+03
C:/temp/Job-44.odb,Step-1,Increment      1: Step Time =    1.000,"P-44-1",           960,       19.0295,       121.280,            0.,NA,NA,"",   823.083E+03,   908.368E+03,   908.368E+03
C:/temp/Job-44.odb,Step-1,Increment      1: Step Time =    1.000,"P-44-1",           961,       119.986,       179.699,            0.,NA,NA,"",   996.339E+03,   999.049E+03,   999.049E+03
C:/temp/Job-44.odb,Step-1,Increment      1: Step Time =    1.000,"P-44-1",           962,       79.3310,       19.7685,            0.,NA,NA,"",   1.00242E+06,   1.00636E+06,   1.00636E+06
C:/temp/Job-44.odb,Step-1,Increment      1: Step Time =    1.000,"P-44-1",           963,       126.041,       79.7053,            0.,NA,NA,"",   1.22436E+06,   1.12604E+06,   1.12604E+06
C:/temp/Job-44.odb,Step-1,Increment      1: Step Time =    1.000,"P-44-1",           964,       73.2573,       122.117,            0.,NA,NA,"",   1.17094E+06,   1.11287E+06,   1.11287E+06
C:/temp/Job-44.odb,Step-1,Increment      1: Step Time =    1.000,"P-44-1",           965,       113.930,       66.5370,            0.,NA,NA,"",   1.18398E+06,   1.20153E+06,   1.20153E+06
C:/temp/Job-44.odb,Step-1,Increment      1: Step Time =    1.000,"P-44-1",           966,       89.8749,       138.624,            0.,NA,NA,"",   1.10595E+06,   1.15252E+06,   1.15252E+06
C:/temp/Job-44.odb,Step-1,Increment      1: Step Time =    1.000,"P-44-1",           967,       84.4331,       133.611,            0.,NA,NA,"",   1.18891E+06,   1.20403E+06,   1.20403E+06
C:/temp/Job-44.odb,Step-1,Increment      1: Step Time =    1.000,"P-44-1",           968,       119.905,       65.6035,            0.,NA,NA,"",   1.20266E+06,   1.18446E+06,   1.18446E+06
C:/temp/Job-44.odb,Step-1,Increment      1: Step Time =    1.000,"P-44-1",           969,       8.66094,       56.4893,            0.,NA,NA,"",   859.534E+03,   954.784E+03,   954.784E+03
C:/temp/Job-44.odb,Step-1,Increment      1: Step Time =    1.000,"P-44-1",           970,       55.2991,       190.793,            0.,NA,NA,"",   1.00379E+06,   1.00384E+06,   1.00384E+06
C:/temp/Job-44.odb,Step-1,Increment      1: Step Time =    1.000,"P-44-1",           971,       144.916,       9.43491,            0.,NA,NA,"",   991.102E+03,   990.013E+03,   990.013E+03
C:/temp/Job-44.odb,Step-1,Increment      1: Step Time =    1.000,"P-44-1",           972,       191.074,       144.596,            0.,NA,NA,"",   991.063E+03,   1.00245E+06,   1.00245E+06
C:/temp/Job-44.odb,Step-1,Increment      1: Step Time =    1.000,"P-44-1",           973,       94.4750,       24.7740,            0.,NA,NA,"",   997.129E+03,   1.00830E+06,   1.00830E+06
C:/temp/Job-44.odb,Step-1,Increment      1: Step Time =    1.000,"P-44-1",           974,       27.1368,       107.237,            0.,NA,NA,"",   800.997E+03,   880.838E+03,   880.838E+03
C:/temp/Job-44.odb,Step-1,Increment      1: Step Time =    1.000,"P-44-1",           975,       175.316,       93.2195,            0.,NA,NA,"",   951.569E+03,   971.467E+03,   971.467E+03
C:/temp/Job-44.odb,Step-1,Increment      1: Step Time =    1.000,"P-44-1",           976,       104.859,       174.739,            0.,NA,NA,"",   995.861E+03,   1.00691E+06,   1.00691E+06
C:/temp/Job-44.odb,Step-1,Increment      1: Step Time =    1.000,"P-44-1",           977,       24.6179,       86.6477,            0.,NA,NA,"",   810.066E+03,   891.683E+03,   891.683E+03
C:/temp/Job-44.odb,Step-1,Increment      1: Step Time =    1.000,"P-44-1",           978,       114.618,       23.4804,            0.,NA,NA,"",   999.191E+03,   1.00531E+06,   1.00531E+06
C:/temp/Job-44.odb,Step-1,Increment      1: Step Time =    1.000,"P-44-1",           979,       84.2114,       24.4606,            0.,NA,NA,"",   1.00843E+06,   1.01634E+06,   1.01634E+06
C:/temp/Job-44.odb,Step-1,Increment      1: Step Time =    1.000,"P-44-1",           980,       23.9456,       117.291,            0.,NA,NA,"",   821.922E+03,   902.820E+03,   902.820E+03
C:/temp/Job-44.odb,Step-1,Increment      1: Step Time =    1.000,"P-44-1",           981,       172.430,       113.975,            0.,NA,NA,"",   959.829E+03,   974.222E+03,   974.222E+03
C:/temp/Job-44.odb,Step-1,Increment      1: Step Time =    1.000,"P-44-1",           982,       175.418,       83.7433,            0.,NA,NA,"",   967.423E+03,   982.731E+03,   982.731E+03
C:/temp/Job-44.odb,Step-1,Increment      1: Step Time =    1.000,"P-44-1",           983,       84.4125,       174.990,            0.,NA,NA,"",   1.00912E+06,   1.01738E+06,   1.01738E+06
C:/temp/Job-44.odb,Step-1,Increment      1: Step Time =    1.000,"P-44-1",           984,       114.758,       174.735,            0.,NA,NA,"",   1.00349E+06,   1.01049E+06,   1.01049E+06
C:/temp/Job-44.odb,Step-1,Increment      1: Step Time =    1.000,"P-44-1",           985,       135.609,       27.2666,            0.,NA,NA,"",   1.02954E+06,   1.02482E+06,   1.02482E+06
C:/temp/Job-44.odb,Step-1,Increment      1: Step Time =    1.000,"P-44-1",           986,       25.1964,       136.302,            0.,NA,NA,"",   898.435E+03,   968.518E+03,   968.518E+03
C:/temp/Job-44.odb,Step-1,Increment      1: Step Time =    1.000,"P-44-1",           987,       175.330,       64.8544,            0.,NA,NA,"",   1.00450E+06,   1.00838E+06,   1.00838E+06
C:/temp/Job-44.odb,Step-1,Increment      1: Step Time =    1.000,"P-44-1",           988,       61.0540,       173.268,            0.,NA,NA,"",   1.04861E+06,   1.04994E+06,   1.04994E+06
C:/temp/Job-44.odb,Step-1,Increment      1: Step Time =    1.000,"P-44-1",           989,       29.1127,       64.3702,            0.,NA,NA,"",   909.292E+03,   972.671E+03,   972.671E+03
C:/temp/Job-44.odb,Step-1,Increment      1: Step Time =    1.000,"P-44-1",           990,       64.5727,       24.7786,            0.,NA,NA,"",   1.03974E+06,   1.04094E+06,   1.04094E+06
C:/temp/Job-44.odb,Step-1,Increment      1: Step Time =    1.000,"P-44-1",           991,       175.560,       135.220,            0.,NA,NA,"",   1.00413E+06,   1.00824E+06,   1.00824E+06
C:/temp/Job-44.odb,Step-1,Increment      1: Step Time =    1.000,"P-44-1",           992,       134.566,       174.096,            0.,NA,NA,"",   1.02597E+06,   1.02192E+06,   1.02192E+06
C:/temp/Job-44.odb,Step-1,Increment      1: Step Time =    1.000,"P-44-1",           993,       130.438,       124.786,            0.,NA,NA,"",   1.17748E+06,   1.10816E+06,   1.10816E+06
C:/temp/Job-44.odb,Step-1,Increment      1: Step Time =    1.000,"P-44-1",           994,       74.5436,       77.8250,            0.,NA,NA,"",   1.19786E+06,   1.13406E+06,   1.13406E+06
C:/temp/Job-44.odb,Step-1,Increment      1: Step Time =    1.000,"P-44-1",           995,       30.7740,       26.2373,            0.,NA,NA,"",   1.05694E+06,   1.08369E+06,   1.08369E+06
C:/temp/Job-44.odb,Step-1,Increment      1: Step Time =    1.000,"P-44-1",           996,       29.1130,       30.9186,            0.,NA,NA,"",   1.03942E+06,   1.07487E+06,   1.07487E+06
C:/temp/Job-44.odb,Step-1,Increment      1: Step Time =    1.000,"P-44-1",           997,       26.0277,       169.139,            0.,NA,NA,"",   1.03430E+06,   1.07584E+06,   1.07584E+06
C:/temp/Job-44.odb,Step-1,Increment      1: Step Time =    1.000,"P-44-1",           998,       167.871,       28.4584,            0.,NA,NA,"",   1.01738E+06,   1.01364E+06,   1.01364E+06
C:/temp/Job-44.odb,Step-1,Increment      1: Step Time =    1.000,"P-44-1",           999,       31.8058,       174.674,            0.,NA,NA,"",   1.05985E+06,   1.08378E+06,   1.08378E+06
C:/temp/Job-44.odb,Step-1,Increment      1: Step Time =    1.000,"P-44-1",          1000,       176.693,       33.3089,            0.,NA,NA,"",   1.01191E+06,   1.01042E+06,   1.01042E+06
C:/temp/Job-44.odb,Step-1,Increment      1: Step Time =    1.000,"P-44-1",          1001,       173.253,       171.769,            0.,NA,NA,"",   1.01194E+06,   1.00989E+06,   1.00989E+06
C:/temp/Job-44.odb,Step-1,Increment      1: Step Time =    1.000,"P-44-1",          1002,       168.738,       178.167,            0.,NA,NA,"",   1.01042E+06,   1.00809E+06,   1.00809E+06
C:/temp/Job-44.odb,Step-1,Increment      1: Step Time =    1.000,"P-44-1",          1003,       16.4311,       176.074,            0.,NA,NA,"",   1.04626E+06,   1.10423E+06,   1.10423E+06
C:/temp/Job-44.odb,Step-1,Increment      1: Step Time =    1.000,"P-44-1",          1004,       21.1442,       14.6165,            0.,NA,NA,"",   1.11141E+06,   1.13318E+06,   1.13318E+06
C:/temp/Job-44.odb,Step-1,Increment      1: Step Time =    1.000,"P-44-1",          1005,       17.9794,       23.8844,            0.,NA,NA,"",   1.04951E+06,   1.10246E+06,   1.10246E+06
C:/temp/Job-44.odb,Step-1,Increment      1: Step Time =    1.000,"P-44-1",          1006,       179.010,       184.043,            0.,NA,NA,"",   1.00268E+06,   1.00233E+06,   1.00233E+06
C:/temp/Job-44.odb,Step-1,Increment      1: Step Time =    1.000,"P-44-1",          1007,       183.212,       21.6701,            0.,NA,NA,"",   1.00316E+06,   1.00304E+06,   1.00304E+06
C:/temp/Job-44.odb,Step-1,Increment      1: Step Time =    1.000,"P-44-1",          1008,       20.6668,       183.674,            0.,NA,NA,"",   1.10624E+06,   1.13312E+06,   1.13312E+06
C:/temp/Job-44.odb,Step-1,Increment      1: Step Time =    1.000,"P-44-1",          1009,       99.2533,       71.6886,            0.,NA,NA,"",   1.16066E+06,   1.27549E+06,   1.27549E+06
C:/temp/Job-44.odb,Step-1,Increment      1: Step Time =    1.000,"P-44-1",          1010,       99.9387,       128.787,            0.,NA,NA,"",   1.15380E+06,   1.26723E+06,   1.26723E+06
C:/temp/Job-44.odb,Step-1,Increment      1: Step Time =    1.000,"P-44-1",          1011,       89.7202,       64.6237,            0.,NA,NA,"",   1.14265E+06,   1.19173E+06,   1.19173E+06
C:/temp/Job-44.odb,Step-1,Increment      1: Step Time =    1.000,"P-44-1",          1012,       108.970,       134.468,            0.,NA,NA,"",   1.13790E+06,   1.19241E+06,   1.19241E+06
C:/temp/Job-44.odb,Step-1,Increment      1: Step Time =    1.000,"P-44-1",          1013,       121.595,       77.7349,            0.,NA,NA,"",   1.31103E+06,   1.22231E+06,   1.22231E+06
C:/temp/Job-44.odb,Step-1,Increment      1: Step Time =    1.000,"P-44-1",          1014,       80.1811,       122.954,            0.,NA,NA,"",   1.29766E+06,   1.23617E+06,   1.23617E+06
C:/temp/Job-44.odb,Step-1,Increment      1: Step Time =    1.000,"P-44-1",          1015,       130.058,       82.2901,            0.,NA,NA,"",   1.10070E+06,   1.01926E+06,   1.01926E+06
C:/temp/Job-44.odb,Step-1,Increment      1: Step Time =    1.000,"P-44-1",          1016,       70.2167,       118.971,            0.,NA,NA,"",   1.08512E+06,   1.03441E+06,   1.03441E+06
C:/temp/Job-44.odb,Step-1,Increment      1: Step Time =    1.000,"P-44-1",          1017,       61.2960,       91.2212,            0.,NA,NA,"",   777.222E+03,   805.816E+03,   805.816E+03
C:/temp/Job-44.odb,Step-1,Increment      1: Step Time =    1.000,"P-44-1",          1018,       135.077,       111.213,            0.,NA,NA,"",   895.082E+03,   860.893E+03,   860.893E+03
C:/temp/Job-44.odb,Step-1,Increment      1: Step Time =    1.000,"P-44-1",          1019,       74.2571,       24.9412,            0.,NA,NA,"",   1.02601E+06,   1.02963E+06,   1.02963E+06
C:/temp/Job-44.odb,Step-1,Increment      1: Step Time =    1.000,"P-44-1",          1020,       124.625,       173.921,            0.,NA,NA,"",   1.01732E+06,   1.01841E+06,   1.01841E+06
C:/temp/Job-44.odb,Step-1,Increment      1: Step Time =    1.000,"P-44-1",          1021,       23.5463,       126.364,            0.,NA,NA,"",   851.893E+03,   929.444E+03,   929.444E+03
C:/temp/Job-44.odb,Step-1,Increment      1: Step Time =    1.000,"P-44-1",          1022,       175.375,       74.2216,            0.,NA,NA,"",   988.193E+03,   997.339E+03,   997.339E+03
C:/temp/Job-44.odb,Step-1,Increment      1: Step Time =    1.000,"P-44-1",          1023,       45.3095,       184.957,            0.,NA,NA,"",   1.04166E+06,   1.04454E+06,   1.04454E+06
C:/temp/Job-44.odb,Step-1,Increment      1: Step Time =    1.000,"P-44-1",          1024,       184.415,       154.197,            0.,NA,NA,"",   1.00312E+06,   1.00689E+06,   1.00689E+06
C:/temp/Job-44.odb,Step-1,Increment      1: Step Time =    1.000,"P-44-1",          1025,       16.5332,       46.6060,            0.,NA,NA,"",   928.479E+03,   1.00697E+06,   1.00697E+06
C:/temp/Job-44.odb,Step-1,Increment      1: Step Time =    1.000,"P-44-1",          1026,       155.643,       14.1492,            0.,NA,NA,"",   1.00358E+06,   1.00157E+06,   1.00157E+06
C:/temp/Job-44.odb,Step-1,Increment      1: Step Time =    1.000,"P-44-1",          1027,       137.969,       89.6153,            0.,NA,NA,"",   870.080E+03,   852.716E+03,   852.716E+03
C:/temp/Job-44.odb,Step-1,Increment      1: Step Time =    1.000,"P-44-1",          1028,       104.842,       24.8225,            0.,NA,NA,"",   994.634E+03,   1.00554E+06,   1.00554E+06
C:/temp/Job-44.odb,Step-1,Increment      1: Step Time =    1.000,"P-44-1",          1029,       26.1733,       93.8594,            0.,NA,NA,"",   798.407E+03,   879.427E+03,   879.427E+03
C:/temp/Job-44.odb,Step-1,Increment      1: Step Time =    1.000,"P-44-1",          1030,       170.658,       101.976,            0.,NA,NA,"",   936.986E+03,   955.317E+03,   955.317E+03
C:/temp/Job-44.odb,Step-1,Increment      1: Step Time =    1.000,"P-44-1",          1031,       94.6976,       174.700,            0.,NA,NA,"",   997.870E+03,   1.00941E+06,   1.00941E+06
C:/temp/Job-44.odb,Step-1,Increment      1: Step Time =    1.000,"P-44-1",          1032,       70.3553,       86.9840,            0.,NA,NA,"",   917.203E+03,    879.27E+03,    879.27E+03
C:/temp/Job-44.odb,Step-1,Increment      1: Step Time =    1.000,"P-44-1",          1033,       185.609,       45.7955,            0.,NA,NA,"",   1.00211E+06,   1.00614E+06,   1.00614E+06
C:/temp/Job-44.odb,Step-1,Increment      1: Step Time =    1.000,"P-44-1",          1034,       154.559,       185.022,            0.,NA,NA,"",   1.00552E+06,   1.00307E+06,   1.00307E+06
C:/temp/Job-44.odb,Step-1,Increment      1: Step Time =    1.000,"P-44-1",          1035,       45.5017,       14.3587,            0.,NA,NA,"",   1.04009E+06,   1.04227E+06,   1.04227E+06
C:/temp/Job-44.odb,Step-1,Increment      1: Step Time =    1.000,"P-44-1",          1036,       14.3532,       153.573,            0.,NA,NA,"",   919.252E+03,   1.00240E+06,   1.00240E+06
C:/temp/Job-44.odb,Step-1,Increment      1: Step Time =    1.000,"P-44-1",          1037,       172.315,       176.975,            0.,NA,NA,"",   1.00929E+06,   1.00751E+06,   1.00751E+06
C:/temp/Job-44.odb,Step-1,Increment      1: Step Time =    1.000,"P-44-1",          1038,       174.275,       174.301,            0.,NA,NA,"",   1.00977E+06,   1.00815E+06,   1.00815E+06
C:/temp/Job-44.odb,Step-1,Increment      1: Step Time =    1.000,"P-44-1",          1039,       174.939,       26.3991,            0.,NA,NA,"",   1.00965E+06,   1.00812E+06,   1.00812E+06
C:/temp/Job-44.odb,Step-1,Increment      1: Step Time =    1.000,"P-44-1",          1040,       27.8690,       175.309,            0.,NA,NA,"",   1.05931E+06,   1.08969E+06,   1.08969E+06
C:/temp/Job-44.odb,Step-1,Increment      1: Step Time =    1.000,"P-44-1",          1041,       24.7976,       175.416,            0.,NA,NA,"",   1.06111E+06,   1.09658E+06,   1.09658E+06
C:/temp/Job-44.odb,Step-1,Increment      1: Step Time =    1.000,"P-44-1",          1042,       172.031,       27.2065,            0.,NA,NA,"",   1.01274E+06,   1.01037E+06,   1.01037E+06
C:/temp/Job-44.odb,Step-1,Increment      1: Step Time =    1.000,"P-44-1",          1043,       28.7956,       22.6138,            0.,NA,NA,"",   1.06923E+06,   1.09375E+06,   1.09375E+06
C:/temp/Job-44.odb,Step-1,Increment      1: Step Time =    1.000,"P-44-1",          1044,       140.573,       97.4791,            0.,NA,NA,"",   760.359E+03,   772.596E+03,   772.596E+03
C:/temp/Job-44.odb,Step-1,Increment      1: Step Time =    1.000,"P-44-1",          1045,       58.1063,       99.8980,            0.,NA,NA,"",   704.871E+03,   755.023E+03,   755.023E+03
C:/temp/Job-44.odb,Step-1,Increment      1: Step Time =    1.000,"P-44-1",          1046,       185.474,       50.5550,            0.,NA,NA,"",   1.00049E+06,   1.00624E+06,   1.00624E+06
C:/temp/Job-44.odb,Step-1,Increment      1: Step Time =    1.000,"P-44-1",          1047,       181.710,       149.067,            0.,NA,NA,"",   1.00503E+06,   1.00901E+06,   1.00901E+06
C:/temp/Job-44.odb,Step-1,Increment      1: Step Time =    1.000,"P-44-1",          1048,       149.654,       184.876,            0.,NA,NA,"",   1.00478E+06,   1.00215E+06,   1.00215E+06
C:/temp/Job-44.odb,Step-1,Increment      1: Step Time =    1.000,"P-44-1",          1049,       18.8803,       51.7719,            0.,NA,NA,"",   918.741E+03,   994.537E+03,   994.537E+03
C:/temp/Job-44.odb,Step-1,Increment      1: Step Time =    1.000,"P-44-1",          1050,       50.3067,       14.5776,            0.,NA,NA,"",   1.03175E+06,   1.03290E+06,   1.03290E+06
C:/temp/Job-44.odb,Step-1,Increment      1: Step Time =    1.000,"P-44-1",          1051,       14.3565,       148.978,            0.,NA,NA,"",   902.040E+03,    986.78E+03,    986.78E+03
C:/temp/Job-44.odb,Step-1,Increment      1: Step Time =    1.000,"P-44-1",          1052,       149.916,       13.8123,            0.,NA,NA,"",   1.00156E+06,   999.465E+03,   999.465E+03
C:/temp/Job-44.odb,Step-1,Increment      1: Step Time =    1.000,"P-44-1",          1053,       129.399,       117.606,            0.,NA,NA,"",   1.11952E+06,   1.03515E+06,   1.03515E+06
C:/temp/Job-44.odb,Step-1,Increment      1: Step Time =    1.000,"P-44-1",          1054,       70.0160,       82.4263,            0.,NA,NA,"",   1.03740E+06,   988.475E+03,   988.475E+03
C:/temp/Job-44.odb,Step-1,Increment      1: Step Time =    1.000,"P-44-1",          1055,       139.699,       114.666,            0.,NA,NA,"",   954.374E+03,   924.647E+03,   924.647E+03
C:/temp/Job-44.odb,Step-1,Increment      1: Step Time =    1.000,"P-44-1",          1056,       56.8965,       91.8124,            0.,NA,NA,"",   778.120E+03,   817.866E+03,   817.866E+03
C:/temp/Job-44.odb,Step-1,Increment      1: Step Time =    1.000,"P-44-1",          1057,       108.758,       139.243,            0.,NA,NA,"",   1.09319E+06,   1.14280E+06,   1.14280E+06
C:/temp/Job-44.odb,Step-1,Increment      1: Step Time =    1.000,"P-44-1",          1058,       90.4900,       59.9862,            0.,NA,NA,"",   1.09175E+06,   1.14194E+06,   1.14194E+06
C:/temp/Job-44.odb,Step-1,Increment      1: Step Time =    1.000,"P-44-1",          1059,       132.429,       24.9655,            0.,NA,NA,"",   1.02118E+06,   1.01845E+06,   1.01845E+06
C:/temp/Job-44.odb,Step-1,Increment      1: Step Time =    1.000,"P-44-1",          1060,       69.5357,       176.307,            0.,NA,NA,"",   1.02918E+06,   1.03139E+06,   1.03139E+06
C:/temp/Job-44.odb,Step-1,Increment      1: Step Time =    1.000,"P-44-1",          1061,       24.5928,       63.3160,            0.,NA,NA,"",   895.257E+03,   966.594E+03,   966.594E+03
C:/temp/Job-44.odb,Step-1,Increment      1: Step Time =    1.000,"P-44-1",          1062,       175.368,       130.581,            0.,NA,NA,"",   997.108E+03,   1.00352E+06,   1.00352E+06
C:/temp/Job-44.odb,Step-1,Increment      1: Step Time =    1.000,"P-44-1",          1063,       15.0982,       181.258,            0.,NA,NA,"",   1.08174E+06,   1.13385E+06,   1.13385E+06
C:/temp/Job-44.odb,Step-1,Increment      1: Step Time =    1.000,"P-44-1",          1064,       132.161,       86.3555,            0.,NA,NA,"",   971.823E+03,   914.442E+03,   914.442E+03
C:/temp/Job-44.odb,Step-1,Increment      1: Step Time =    1.000,"P-44-1",          1065,       69.2606,       112.430,            0.,NA,NA,"",   900.362E+03,   871.309E+03,   871.309E+03
C:/temp/Job-44.odb,Step-1,Increment      1: Step Time =    1.000,"P-44-1",          1066,       142.355,       89.5704,            0.,NA,NA,"",   884.057E+03,   875.471E+03,   875.471E+03
C:/temp/Job-44.odb,Step-1,Increment      1: Step Time =    1.000,"P-44-1",          1067,       60.6699,       108.511,            0.,NA,NA,"",   760.614E+03,   793.462E+03,   793.462E+03
C:/temp/Job-44.odb,Step-1,Increment      1: Step Time =    1.000,"P-44-1",          1068,       89.0077,       28.9016,            0.,NA,NA,"",   1.01156E+06,   1.02428E+06,   1.02428E+06
C:/temp/Job-44.odb,Step-1,Increment      1: Step Time =    1.000,"P-44-1",          1069,       30.6984,       112.232,            0.,NA,NA,"",   817.500E+03,   891.651E+03,   891.651E+03
C:/temp/Job-44.odb,Step-1,Increment      1: Step Time =    1.000,"P-44-1",          1070,       170.294,       88.0500,            0.,NA,NA,"",   953.594E+03,   967.430E+03,   967.430E+03
C:/temp/Job-44.odb,Step-1,Increment      1: Step Time =    1.000,"P-44-1",          1071,       109.665,       169.658,            0.,NA,NA,"",   1.00924E+06,   1.02215E+06,   1.02215E+06
C:/temp/Job-44.odb,Step-1,Increment      1: Step Time =    1.000,"P-44-1",          1072,       29.6126,       78.0376,            0.,NA,NA,"",   850.500E+03,   921.501E+03,   921.501E+03
C:/temp/Job-44.odb,Step-1,Increment      1: Step Time =    1.000,"P-44-1",          1073,       124.088,       31.2913,            0.,NA,NA,"",   1.03152E+06,   1.03300E+06,   1.03300E+06
C:/temp/Job-44.odb,Step-1,Increment      1: Step Time =    1.000,"P-44-1",          1074,       79.3754,       29.5833,            0.,NA,NA,"",   1.03008E+06,   1.03809E+06,   1.03809E+06
C:/temp/Job-44.odb,Step-1,Increment      1: Step Time =    1.000,"P-44-1",          1075,       27.9777,       122.621,            0.,NA,NA,"",   850.372E+03,     923.6E+03,     923.6E+03
C:/temp/Job-44.odb,Step-1,Increment      1: Step Time =    1.000,"P-44-1",          1076,       169.587,       121.949,            0.,NA,NA,"",   982.858E+03,   988.743E+03,   988.743E+03
C:/temp/Job-44.odb,Step-1,Increment      1: Step Time =    1.000,"P-44-1",          1077,       79.0929,       170.098,            0.,NA,NA,"",   1.03055E+06,   1.03854E+06,   1.03854E+06
C:/temp/Job-44.odb,Step-1,Increment      1: Step Time =    1.000,"P-44-1",          1078,       170.592,       78.6751,            0.,NA,NA,"",   980.789E+03,   988.134E+03,   988.134E+03
C:/temp/Job-44.odb,Step-1,Increment      1: Step Time =    1.000,"P-44-1",          1079,       118.962,       169.322,            0.,NA,NA,"",   1.02272E+06,   1.02864E+06,   1.02864E+06
C:/temp/Job-44.odb,Step-1,Increment      1: Step Time =    1.000,"P-44-1",          1080,       29.2496,       145.199,            0.,NA,NA,"",   953.125E+03,   1.00911E+06,   1.00911E+06
C:/temp/Job-44.odb,Step-1,Increment      1: Step Time =    1.000,"P-44-1",          1081,       137.748,       29.8703,            0.,NA,NA,"",   1.03818E+06,   1.03164E+06,   1.03164E+06
C:/temp/Job-44.odb,Step-1,Increment      1: Step Time =    1.000,"P-44-1",          1082,       57.1761,       171.738,            0.,NA,NA,"",   1.05434E+06,   1.05661E+06,   1.05661E+06
C:/temp/Job-44.odb,Step-1,Increment      1: Step Time =    1.000,"P-44-1",          1083,       170.515,       60.2466,            0.,NA,NA,"",   1.01990E+06,   1.01704E+06,   1.01704E+06
C:/temp/Job-44.odb,Step-1,Increment      1: Step Time =    1.000,"P-44-1",          1084,       59.7859,       30.0860,            0.,NA,NA,"",   1.05711E+06,   1.05898E+06,   1.05898E+06
C:/temp/Job-44.odb,Step-1,Increment      1: Step Time =    1.000,"P-44-1",          1085,       29.1916,       58.8430,            0.,NA,NA,"",   931.864E+03,   991.994E+03,   991.994E+03
C:/temp/Job-44.odb,Step-1,Increment      1: Step Time =    1.000,"P-44-1",          1086,       170.783,       139.403,            0.,NA,NA,"",   1.01844E+06,   1.01608E+06,   1.01608E+06
C:/temp/Job-44.odb,Step-1,Increment      1: Step Time =    1.000,"P-44-1",          1087,       139.326,       168.833,            0.,NA,NA,"",   1.04310E+06,   1.03501E+06,   1.03501E+06
C:/temp/Job-44.odb,Step-1,Increment      1: Step Time =    1.000,"P-44-1",          1088,       28.3814,       34.8549,            0.,NA,NA,"",   1.02392E+06,   1.06520E+06,   1.06520E+06
C:/temp/Job-44.odb,Step-1,Increment      1: Step Time =    1.000,"P-44-1",          1089,       36.1261,       28.4032,            0.,NA,NA,"",   1.05462E+06,   1.07518E+06,   1.07518E+06
C:/temp/Job-44.odb,Step-1,Increment      1: Step Time =    1.000,"P-44-1",          1090,       163.057,       29.1986,            0.,NA,NA,"",    1.0228E+06,   1.01751E+06,   1.01751E+06
C:/temp/Job-44.odb,Step-1,Increment      1: Step Time =    1.000,"P-44-1",          1091,       27.3114,       166.379,            0.,NA,NA,"",   1.02441E+06,   1.06751E+06,   1.06751E+06
C:/temp/Job-44.odb,Step-1,Increment      1: Step Time =    1.000,"P-44-1",          1092,       173.518,       36.4519,            0.,NA,NA,"",   1.01694E+06,   1.01425E+06,   1.01425E+06
C:/temp/Job-44.odb,Step-1,Increment      1: Step Time =    1.000,"P-44-1",          1093,       36.4746,       169.531,            0.,NA,NA,"",   1.05137E+06,   1.07309E+06,   1.07309E+06
C:/temp/Job-44.odb,Step-1,Increment      1: Step Time =    1.000,"P-44-1",          1094,       164.742,       171.699,            0.,NA,NA,"",   1.02031E+06,   1.01564E+06,   1.01564E+06
C:/temp/Job-44.odb,Step-1,Increment      1: Step Time =    1.000,"P-44-1",          1095,       170.712,       165.617,            0.,NA,NA,"",   1.01945E+06,   1.01571E+06,   1.01571E+06
C:/temp/Job-44.odb,Step-1,Increment      1: Step Time =    1.000,"P-44-1",          1096,       16.5453,       18.3519,            0.,NA,NA,"",   1.08988E+06,   1.13498E+06,   1.13498E+06
C:/temp/Job-44.odb,Step-1,Increment      1: Step Time =    1.000,"P-44-1",          1097,       178.755,       15.0518,            0.,NA,NA,"",   1.00240E+06,   1.00200E+06,   1.00200E+06
C:/temp/Job-44.odb,Step-1,Increment      1: Step Time =    1.000,"P-44-1",          1098,       15.2803,       184.893,            0.,NA,NA,"",   1.12079E+06,   1.16086E+06,   1.16086E+06
C:/temp/Job-44.odb,Step-1,Increment      1: Step Time =    1.000,"P-44-1",          1099,       185.300,       179.582,            0.,NA,NA,"",   1.00196E+06,   1.00209E+06,   1.00209E+06
C:/temp/Job-44.odb,Step-1,Increment      1: Step Time =    1.000,"P-44-1",          1100,       84.4999,       66.7949,            0.,NA,NA,"",   1.20072E+06,   1.21190E+06,   1.21190E+06
C:/temp/Job-44.odb,Step-1,Increment      1: Step Time =    1.000,"P-44-1",          1101,       113.547,       134.759,            0.,NA,NA,"",   1.17546E+06,   1.19544E+06,   1.19544E+06
C:/temp/Job-44.odb,Step-1,Increment      1: Step Time =    1.000,"P-44-1",          1102,       154.034,       8.99339,            0.,NA,NA,"",   996.587E+03,   995.554E+03,   995.554E+03
C:/temp/Job-44.odb,Step-1,Increment      1: Step Time =    1.000,"P-44-1",          1103,       190.615,       153.782,            0.,NA,NA,"",   996.769E+03,   1.00297E+06,   1.00297E+06
C:/temp/Job-44.odb,Step-1,Increment      1: Step Time =    1.000,"P-44-1",          1104,       46.1416,       190.676,            0.,NA,NA,"",   1.02263E+06,   1.02343E+06,   1.02343E+06
C:/temp/Job-44.odb,Step-1,Increment      1: Step Time =    1.000,"P-44-1",          1105,       10.1512,       47.3111,            0.,NA,NA,"",   896.065E+03,   987.811E+03,   987.811E+03
C:/temp/Job-44.odb,Step-1,Increment      1: Step Time =    1.000,"P-44-1",          1106,       69.8324,       124.414,            0.,NA,NA,"",   1.13896E+06,   1.09768E+06,   1.09768E+06
C:/temp/Job-44.odb,Step-1,Increment      1: Step Time =    1.000,"P-44-1",          1107,       129.078,       75.8414,            0.,NA,NA,"",   1.20606E+06,   1.13007E+06,   1.13007E+06
C:/temp/Job-44.odb,Step-1,Increment      1: Step Time =    1.000,"P-44-1",          1108,       69.2686,       29.2852,            0.,NA,NA,"",   1.04535E+06,   1.04817E+06,   1.04817E+06
C:/temp/Job-44.odb,Step-1,Increment      1: Step Time =    1.000,"P-44-1",          1109,       129.447,       168.293,            0.,NA,NA,"",   1.03949E+06,   1.03656E+06,   1.03656E+06
C:/temp/Job-44.odb,Step-1,Increment      1: Step Time =    1.000,"P-44-1",          1110,       30.3400,       129.532,            0.,NA,NA,"",   887.301E+03,   952.323E+03,   952.323E+03
C:/temp/Job-44.odb,Step-1,Increment      1: Step Time =    1.000,"P-44-1",          1111,       170.358,       69.4835,            0.,NA,NA,"",   1.00432E+06,   1.00545E+06,   1.00545E+06
C:/temp/Job-44.odb,Step-1,Increment      1: Step Time =    1.000,"P-44-1",          1112,       109.787,       24.1038,            0.,NA,NA,"",   996.062E+03,   1.00501E+06,   1.00501E+06
C:/temp/Job-44.odb,Step-1,Increment      1: Step Time =    1.000,"P-44-1",          1113,       22.7210,       89.8459,            0.,NA,NA,"",   801.271E+03,   885.073E+03,   885.073E+03
C:/temp/Job-44.odb,Step-1,Increment      1: Step Time =    1.000,"P-44-1",          1114,       99.5756,       31.0321,            0.,NA,NA,"",   1.00640E+06,   1.02372E+06,   1.02372E+06
C:/temp/Job-44.odb,Step-1,Increment      1: Step Time =    1.000,"P-44-1",          1115,       32.6976,       100.223,            0.,NA,NA,"",   796.248E+03,   871.074E+03,   871.074E+03
C:/temp/Job-44.odb,Step-1,Increment      1: Step Time =    1.000,"P-44-1",          1116,       170.306,       97.3298,            0.,NA,NA,"",   937.772E+03,    955.63E+03,    955.63E+03
C:/temp/Job-44.odb,Step-1,Increment      1: Step Time =    1.000,"P-44-1",          1117,       99.6776,       169.420,            0.,NA,NA,"",   1.00527E+06,   1.02200E+06,   1.02200E+06
C:/temp/Job-44.odb,Step-1,Increment      1: Step Time =    1.000,"P-44-1",          1118,       175.464,       106.559,            0.,NA,NA,"",   949.793E+03,   970.003E+03,   970.003E+03
C:/temp/Job-44.odb,Step-1,Increment      1: Step Time =    1.000,"P-44-1",          1119,       89.5218,       174.860,            0.,NA,NA,"",   1.00244E+06,   1.01273E+06,   1.01273E+06
C:/temp/Job-44.odb,Step-1,Increment      1: Step Time =    1.000,"P-44-1",          1120,       90.1040,       143.769,            0.,NA,NA,"",   1.07613E+06,   1.11810E+06,   1.11810E+06
C:/temp/Job-44.odb,Step-1,Increment      1: Step Time =    1.000,"P-44-1",          1121,       112.326,       61.2757,            0.,NA,NA,"",   1.12593E+06,   1.15839E+06,   1.15839E+06
C:/temp/Job-44.odb,Step-1,Increment      1: Step Time =    1.000,"P-44-1",          1122,       190.399,       45.5768,            0.,NA,NA,"",   997.498E+03,    1.0031E+06,    1.0031E+06
C:/temp/Job-44.odb,Step-1,Increment      1: Step Time =    1.000,"P-44-1",          1123,       154.635,       190.083,            0.,NA,NA,"",   998.346E+03,   997.119E+03,   997.119E+03
C:/temp/Job-44.odb,Step-1,Increment      1: Step Time =    1.000,"P-44-1",          1124,       45.4303,       9.57373,            0.,NA,NA,"",   1.02541E+06,   1.02631E+06,   1.02631E+06
C:/temp/Job-44.odb,Step-1,Increment      1: Step Time =    1.000,"P-44-1",          1125,       9.49714,       154.066,            0.,NA,NA,"",   899.427E+03,   992.026E+03,   992.026E+03
C:/temp/Job-44.odb,Step-1,Increment      1: Step Time =    1.000,"P-44-1",          1126,       27.1265,       27.6438,            0.,NA,NA,"",   1.04725E+06,   1.08287E+06,   1.08287E+06
C:/temp/Job-44.odb,Step-1,Increment      1: Step Time =    1.000,"P-44-1",          1127,       173.491,       30.7407,            0.,NA,NA,"",   1.01390E+06,   1.01154E+06,   1.01154E+06
C:/temp/Job-44.odb,Step-1,Increment      1: Step Time =    1.000,"P-44-1",          1128,       99.5759,       66.4616,            0.,NA,NA,"",   1.08526E+06,   1.17655E+06,   1.17655E+06
C:/temp/Job-44.odb,Step-1,Increment      1: Step Time =    1.000,"P-44-1",          1129,       99.6156,       133.792,            0.,NA,NA,"",   1.08719E+06,   1.17741E+06,   1.17741E+06
C:/temp/Job-44.odb,Step-1,Increment      1: Step Time =    1.000,"P-44-1",          1130,       57.8525,       103.588,            0.,NA,NA,"",   718.493E+03,   767.035E+03,   767.035E+03
C:/temp/Job-44.odb,Step-1,Increment      1: Step Time =    1.000,"P-44-1",          1131,       143.076,       92.9118,            0.,NA,NA,"",   838.720E+03,   840.873E+03,   840.873E+03
C:/temp/Job-44.odb,Step-1,Increment      1: Step Time =    1.000,"P-44-1",          1132,       57.6326,       95.9413,            0.,NA,NA,"",   727.234E+03,   774.224E+03,   774.224E+03
C:/temp/Job-44.odb,Step-1,Increment      1: Step Time =    1.000,"P-44-1",          1133,       144.633,       104.502,            0.,NA,NA,"",   809.607E+03,   820.706E+03,   820.706E+03
C:/temp/Job-44.odb,Step-1,Increment      1: Step Time =    1.000,"P-44-1",          1134,       177.617,       151.899,            0.,NA,NA,"",   1.01297E+06,   1.01326E+06,   1.01326E+06
C:/temp/Job-44.odb,Step-1,Increment      1: Step Time =    1.000,"P-44-1",          1135,       154.626,       179.898,            0.,NA,NA,"",   1.01405E+06,   1.01003E+06,   1.01003E+06
C:/temp/Job-44.odb,Step-1,Increment      1: Step Time =    1.000,"P-44-1",          1136,       180.898,       45.9090,            0.,NA,NA,"",   1.00822E+06,   1.00998E+06,   1.00998E+06
C:/temp/Job-44.odb,Step-1,Increment      1: Step Time =    1.000,"P-44-1",          1137,       152.165,       18.8385,            0.,NA,NA,"",   1.01078E+06,   1.00732E+06,   1.00732E+06
C:/temp/Job-44.odb,Step-1,Increment      1: Step Time =    1.000,"P-44-1",          1138,       19.2872,       153.253,            0.,NA,NA,"",   940.685E+03,   1.01315E+06,   1.01315E+06
C:/temp/Job-44.odb,Step-1,Increment      1: Step Time =    1.000,"P-44-1",          1139,       23.1123,       43.6328,            0.,NA,NA,"",   970.115E+03,   1.03225E+06,   1.03225E+06
C:/temp/Job-44.odb,Step-1,Increment      1: Step Time =    1.000,"P-44-1",          1140,       45.3054,       19.1011,            0.,NA,NA,"",   1.05106E+06,   1.05523E+06,   1.05523E+06
C:/temp/Job-44.odb,Step-1,Increment      1: Step Time =    1.000,"P-44-1",          1141,       187.150,       152.317,            0.,NA,NA,"",   999.289E+03,   1.00491E+06,   1.00491E+06
C:/temp/Job-44.odb,Step-1,Increment      1: Step Time =    1.000,"P-44-1",          1142,       47.3344,       187.195,            0.,NA,NA,"",   1.03256E+06,   1.03404E+06,   1.03404E+06
C:/temp/Job-44.odb,Step-1,Increment      1: Step Time =    1.000,"P-44-1",          1143,       153.311,       12.4022,            0.,NA,NA,"",   1.00111E+06,   999.360E+03,   999.360E+03
C:/temp/Job-44.odb,Step-1,Increment      1: Step Time =    1.000,"P-44-1",          1144,       14.7437,       49.6277,            0.,NA,NA,"",   908.873E+03,   992.291E+03,   992.291E+03
C:/temp/Job-44.odb,Step-1,Increment      1: Step Time =    1.000,"P-44-1",          1145,       66.9310,       122.603,            0.,NA,NA,"",   1.08515E+06,   1.05395E+06,   1.05395E+06
C:/temp/Job-44.odb,Step-1,Increment      1: Step Time =    1.000,"P-44-1",          1146,       134.745,       78.5500,            0.,NA,NA,"",   1.10480E+06,   1.04288E+06,   1.04288E+06
C:/temp/Job-44.odb,Step-1,Increment      1: Step Time =    1.000,"P-44-1",          1147,       69.6557,       128.382,            0.,NA,NA,"",   1.14741E+06,   1.11517E+06,   1.11517E+06
C:/temp/Job-44.odb,Step-1,Increment      1: Step Time =    1.000,"P-44-1",          1148,       131.326,       71.5889,            0.,NA,NA,"",   1.18412E+06,   1.12426E+06,   1.12426E+06
C:/temp/Job-44.odb,Step-1,Increment      1: Step Time =    1.000,"P-44-1",          1149,       65.4647,       86.7766,            0.,NA,NA,"",   871.840E+03,   867.712E+03,   867.712E+03
C:/temp/Job-44.odb,Step-1,Increment      1: Step Time =    1.000,"P-44-1",          1150,       132.364,       114.370,            0.,NA,NA,"",   1.00099E+06,   938.702E+03,   938.702E+03
C:/temp/Job-44.odb,Step-1,Increment      1: Step Time =    1.000,"P-44-1",          1151,       104.083,       143.809,            0.,NA,NA,"",   1.04908E+06,   1.10378E+06,   1.10378E+06
C:/temp/Job-44.odb,Step-1,Increment      1: Step Time =    1.000,"P-44-1",          1152,       95.6345,       55.9838,            0.,NA,NA,"",   1.05015E+06,   1.10506E+06,   1.10506E+06
C:/temp/Job-44.odb,Step-1,Increment      1: Step Time =    1.000,"P-44-1",          1153,       23.7145,       73.8817,            0.,NA,NA,"",   850.652E+03,   928.341E+03,   928.341E+03
C:/temp/Job-44.odb,Step-1,Increment      1: Step Time =    1.000,"P-44-1",          1154,       174.911,       126.043,            0.,NA,NA,"",   989.009E+03,   997.535E+03,   997.535E+03
C:/temp/Job-44.odb,Step-1,Increment      1: Step Time =    1.000,"P-44-1",          1155,       130.016,       28.9617,            0.,NA,NA,"",   1.03077E+06,   1.02841E+06,   1.02841E+06
C:/temp/Job-44.odb,Step-1,Increment      1: Step Time =    1.000,"P-44-1",          1156,       74.2786,       175.459,            0.,NA,NA,"",   1.02366E+06,   1.02757E+06,   1.02757E+06
C:/temp/Job-44.odb,Step-1,Increment      1: Step Time =    1.000,"P-44-1",          1157,       177.730,       19.7020,            0.,NA,NA,"",   1.00476E+06,   1.00402E+06,   1.00402E+06
C:/temp/Job-44.odb,Step-1,Increment      1: Step Time =    1.000,"P-44-1",          1158,       180.787,       179.003,            0.,NA,NA,"",   1.00369E+06,   1.00344E+06,   1.00344E+06
C:/temp/Job-44.odb,Step-1,Increment      1: Step Time =    1.000,"P-44-1",          1159,       25.7359,       148.445,            0.,NA,NA,"",   948.601E+03,   1.01042E+06,   1.01042E+06
C:/temp/Job-44.odb,Step-1,Increment      1: Step Time =    1.000,"P-44-1",          1160,       141.664,       27.8397,            0.,NA,NA,"",   1.03239E+06,   1.02585E+06,   1.02585E+06
C:/temp/Job-44.odb,Step-1,Increment      1: Step Time =    1.000,"P-44-1",          1161,       175.570,       55.4248,            0.,NA,NA,"",   1.01387E+06,   1.01431E+06,   1.01431E+06
C:/temp/Job-44.odb,Step-1,Increment      1: Step Time =    1.000,"P-44-1",          1162,       54.7268,       25.0711,            0.,NA,NA,"",   1.05075E+06,   1.05309E+06,   1.05309E+06
C:/temp/Job-44.odb,Step-1,Increment      1: Step Time =    1.000,"P-44-1",          1163,       26.4481,       54.7671,            0.,NA,NA,"",   937.698E+03,   1.00074E+06,   1.00074E+06
C:/temp/Job-44.odb,Step-1,Increment      1: Step Time =    1.000,"P-44-1",          1164,       144.559,       174.267,            0.,NA,NA,"",   1.02776E+06,   1.02138E+06,   1.02138E+06
C:/temp/Job-44.odb,Step-1,Increment      1: Step Time =    1.000,"P-44-1",          1165,       174.787,       143.196,            0.,NA,NA,"",   1.01403E+06,   1.01439E+06,   1.01439E+06
C:/temp/Job-44.odb,Step-1,Increment      1: Step Time =    1.000,"P-44-1",          1166,       39.4147,       23.2409,            0.,NA,NA,"",   1.06126E+06,   1.07227E+06,   1.07227E+06
C:/temp/Job-44.odb,Step-1,Increment      1: Step Time =    1.000,"P-44-1",          1167,       23.2974,       162.049,            0.,NA,NA,"",     994.6E+03,   1.05153E+06,   1.05153E+06
C:/temp/Job-44.odb,Step-1,Increment      1: Step Time =    1.000,"P-44-1",          1168,       176.675,       41.2949,            0.,NA,NA,"",   1.01424E+06,   1.01312E+06,   1.01312E+06
C:/temp/Job-44.odb,Step-1,Increment      1: Step Time =    1.000,"P-44-1",          1169,       159.972,       175.484,            0.,NA,NA,"",   1.01921E+06,   1.01442E+06,   1.01442E+06
C:/temp/Job-44.odb,Step-1,Increment      1: Step Time =    1.000,"P-44-1",          1170,       11.1065,       15.1913,            0.,NA,NA,"",   1.11483E+06,   1.17381E+06,   1.17381E+06
C:/temp/Job-44.odb,Step-1,Increment      1: Step Time =    1.000,"P-44-1",          1171,       184.418,       10.3219,            0.,NA,NA,"",   1.00035E+06,   1.00030E+06,   1.00030E+06
C:/temp/Job-44.odb,Step-1,Increment      1: Step Time =    1.000,"P-44-1",          1172,       15.3723,       189.691,            0.,NA,NA,"",   1.15958E+06,   1.18188E+06,   1.18188E+06
C:/temp/Job-44.odb,Step-1,Increment      1: Step Time =    1.000,"P-44-1",          1173,       189.934,       184.776,            0.,NA,NA,"",   1.00049E+06,   1.00057E+06,   1.00057E+06
C:/temp/Job-44.odb,Step-1,Increment      1: Step Time =    1.000,"P-44-1",          1174,       85.3317,       144.122,            0.,NA,NA,"",   1.09799E+06,   1.12526E+06,   1.12526E+06
C:/temp/Job-44.odb,Step-1,Increment      1: Step Time =    1.000,"P-44-1",          1175,       116.809,       57.3874,            0.,NA,NA,"",   1.12456E+06,   1.13526E+06,   1.13526E+06
C:/temp/Job-44.odb,Step-1,Increment      1: Step Time =    1.000,"P-44-1",          1176,       99.7509,       61.3154,            0.,NA,NA,"",   1.06039E+06,   1.13234E+06,   1.13234E+06
C:/temp/Job-44.odb,Step-1,Increment      1: Step Time =    1.000,"P-44-1",          1177,       99.5015,       138.716,            0.,NA,NA,"",   1.05967E+06,   1.13274E+06,   1.13274E+06
C:/temp/Job-44.odb,Step-1,Increment      1: Step Time =    1.000,"P-44-1",          1178,       53.2789,       100.011,            0.,NA,NA,"",   744.707E+03,   798.991E+03,   798.991E+03
C:/temp/Job-44.odb,Step-1,Increment      1: Step Time =    1.000,"P-44-1",          1179,       146.390,       99.4878,            0.,NA,NA,"",   812.802E+03,   827.141E+03,   827.141E+03
C:/temp/Job-44.odb,Step-1,Increment      1: Step Time =    1.000,"P-44-1",          1180,       154.861,       174.735,            0.,NA,NA,"",   1.02325E+06,   1.01740E+06,   1.01740E+06
C:/temp/Job-44.odb,Step-1,Increment      1: Step Time =    1.000,"P-44-1",          1181,       173.591,       154.198,            0.,NA,NA,"",   1.02012E+06,   1.01741E+06,   1.01741E+06
C:/temp/Job-44.odb,Step-1,Increment      1: Step Time =    1.000,"P-44-1",          1182,       45.2197,       173.756,            0.,NA,NA,"",    1.0573E+06,   1.06533E+06,   1.06533E+06
C:/temp/Job-44.odb,Step-1,Increment      1: Step Time =    1.000,"P-44-1",          1183,       176.212,       45.8751,            0.,NA,NA,"",   1.01555E+06,   1.01455E+06,   1.01455E+06
C:/temp/Job-44.odb,Step-1,Increment      1: Step Time =    1.000,"P-44-1",          1184,       23.2503,       157.905,            0.,NA,NA,"",   977.715E+03,   1.03793E+06,   1.03793E+06
C:/temp/Job-44.odb,Step-1,Increment      1: Step Time =    1.000,"P-44-1",          1185,       152.338,       24.6963,            0.,NA,NA,"",   1.02298E+06,   1.01728E+06,   1.01728E+06
C:/temp/Job-44.odb,Step-1,Increment      1: Step Time =    1.000,"P-44-1",          1186,       25.6016,       42.4941,            0.,NA,NA,"",   984.103E+03,   1.03974E+06,   1.03974E+06
C:/temp/Job-44.odb,Step-1,Increment      1: Step Time =    1.000,"P-44-1",          1187,       44.8590,       23.7271,            0.,NA,NA,"",   1.05694E+06,   1.06391E+06,   1.06391E+06
C:/temp/Job-44.odb,Step-1,Increment      1: Step Time =    1.000,"P-44-1",          1188,       149.693,       174.403,            0.,NA,NA,"",   1.02621E+06,   1.01978E+06,   1.01978E+06
C:/temp/Job-44.odb,Step-1,Increment      1: Step Time =    1.000,"P-44-1",          1189,       174.575,       148.083,            0.,NA,NA,"",   1.01738E+06,   1.01619E+06,   1.01619E+06
C:/temp/Job-44.odb,Step-1,Increment      1: Step Time =    1.000,"P-44-1",          1190,       146.614,       25.8377,            0.,NA,NA,"",   1.02728E+06,   1.02101E+06,   1.02101E+06
C:/temp/Job-44.odb,Step-1,Increment      1: Step Time =    1.000,"P-44-1",          1191,       24.1762,       153.515,            0.,NA,NA,"",   963.607E+03,   1.02516E+06,   1.02516E+06
C:/temp/Job-44.odb,Step-1,Increment      1: Step Time =    1.000,"P-44-1",          1192,       175.857,       50.6284,            0.,NA,NA,"",   1.01562E+06,   1.01510E+06,   1.01510E+06
C:/temp/Job-44.odb,Step-1,Increment      1: Step Time =    1.000,"P-44-1",          1193,       50.7544,       175.208,            0.,NA,NA,"",   1.05250E+06,   1.05635E+06,   1.05635E+06
C:/temp/Job-44.odb,Step-1,Increment      1: Step Time =    1.000,"P-44-1",          1194,       49.9103,       24.3865,            0.,NA,NA,"",   1.05396E+06,   1.05815E+06,   1.05815E+06
C:/temp/Job-44.odb,Step-1,Increment      1: Step Time =    1.000,"P-44-1",          1195,       25.8423,       47.1325,            0.,NA,NA,"",   964.128E+03,   1.02359E+06,   1.02359E+06
C:/temp/Job-44.odb,Step-1,Increment      1: Step Time =    1.000,"P-44-1",          1196,       110.309,       28.6148,            0.,NA,NA,"",   1.00682E+06,   1.01827E+06,   1.01827E+06
C:/temp/Job-44.odb,Step-1,Increment      1: Step Time =    1.000,"P-44-1",          1197,       28.6483,       88.2721,            0.,NA,NA,"",   812.147E+03,   889.342E+03,   889.342E+03
C:/temp/Job-44.odb,Step-1,Increment      1: Step Time =    1.000,"P-44-1",          1198,       89.2182,       169.906,            0.,NA,NA,"",   1.01399E+06,   1.02795E+06,   1.02795E+06
C:/temp/Job-44.odb,Step-1,Increment      1: Step Time =    1.000,"P-44-1",          1199,       171.339,       110.241,            0.,NA,NA,"",   949.173E+03,   965.386E+03,   965.386E+03
C:/temp/Job-44.odb,Step-1,Increment      1: Step Time =    1.000,"P-44-1",          1200,       165.227,       97.2373,            0.,NA,NA,"",   924.806E+03,   940.465E+03,   940.465E+03
C:/temp/Job-44.odb,Step-1,Increment      1: Step Time =    1.000,"P-44-1",          1201,       99.5856,       164.099,            0.,NA,NA,"",   1.01386E+06,   1.03641E+06,   1.03641E+06
C:/temp/Job-44.odb,Step-1,Increment      1: Step Time =    1.000,"P-44-1",          1202,       37.2718,       102.153,            0.,NA,NA,"",   793.642E+03,   863.620E+03,   863.620E+03
C:/temp/Job-44.odb,Step-1,Increment      1: Step Time =    1.000,"P-44-1",          1203,       27.3842,       171.507,            0.,NA,NA,"",   1.04581E+06,   1.08194E+06,   1.08194E+06
C:/temp/Job-44.odb,Step-1,Increment      1: Step Time =    1.000,"P-44-1",          1204,       165.366,       87.1793,            0.,NA,NA,"",   950.546E+03,   960.258E+03,   960.258E+03
C:/temp/Job-44.odb,Step-1,Increment      1: Step Time =    1.000,"P-44-1",          1205,       92.9078,       33.4667,            0.,NA,NA,"",   1.01519E+06,   1.03418E+06,   1.03418E+06
C:/temp/Job-44.odb,Step-1,Increment      1: Step Time =    1.000,"P-44-1",          1206,       34.6674,       111.028,            0.,NA,NA,"",   815.719E+03,   885.776E+03,   885.776E+03
C:/temp/Job-44.odb,Step-1,Increment      1: Step Time =    1.000,"P-44-1",          1207,       166.314,       122.694,            0.,NA,NA,"",   986.488E+03,   988.791E+03,   988.791E+03
C:/temp/Job-44.odb,Step-1,Increment      1: Step Time =    1.000,"P-44-1",          1208,       79.0147,       165.235,            0.,NA,NA,"",   1.04434E+06,   1.05393E+06,   1.05393E+06
C:/temp/Job-44.odb,Step-1,Increment      1: Step Time =    1.000,"P-44-1",          1209,       165.774,       78.4929,            0.,NA,NA,"",   983.258E+03,   985.858E+03,   985.858E+03
C:/temp/Job-44.odb,Step-1,Increment      1: Step Time =    1.000,"P-44-1",          1210,       120.808,       164.235,            0.,NA,NA,"",   1.03980E+06,   1.04489E+06,   1.04489E+06
C:/temp/Job-44.odb,Step-1,Increment      1: Step Time =    1.000,"P-44-1",          1211,       122.996,       36.1334,            0.,NA,NA,"",   1.04539E+06,   1.04791E+06,   1.04791E+06
C:/temp/Job-44.odb,Step-1,Increment      1: Step Time =    1.000,"P-44-1",          1212,       80.6058,       33.9189,            0.,NA,NA,"",   1.03833E+06,   1.04915E+06,   1.04915E+06
C:/temp/Job-44.odb,Step-1,Increment      1: Step Time =    1.000,"P-44-1",          1213,       34.5645,       78.7070,            0.,NA,NA,"",   861.409E+03,   924.894E+03,   924.894E+03
C:/temp/Job-44.odb,Step-1,Increment      1: Step Time =    1.000,"P-44-1",          1214,       32.9492,       120.160,            0.,NA,NA,"",   852.612E+03,    919.34E+03,    919.34E+03
C:/temp/Job-44.odb,Step-1,Increment      1: Step Time =    1.000,"P-44-1",          1215,       165.327,       69.5615,            0.,NA,NA,"",   1.01323E+06,   1.00863E+06,   1.00863E+06
C:/temp/Job-44.odb,Step-1,Increment      1: Step Time =    1.000,"P-44-1",          1216,       36.7571,       130.156,            0.,NA,NA,"",   918.172E+03,   969.701E+03,   969.701E+03
C:/temp/Job-44.odb,Step-1,Increment      1: Step Time =    1.000,"P-44-1",          1217,       129.916,       162.937,            0.,NA,NA,"",   1.05744E+06,   1.05221E+06,   1.05221E+06
C:/temp/Job-44.odb,Step-1,Increment      1: Step Time =    1.000,"P-44-1",          1218,       69.7037,       33.0051,            0.,NA,NA,"",   1.05568E+06,   1.05910E+06,   1.05910E+06
C:/temp/Job-44.odb,Step-1,Increment      1: Step Time =    1.000,"P-44-1",          1219,       38.3856,       164.658,            0.,NA,NA,"",   1.04478E+06,   1.06790E+06,   1.06790E+06
C:/temp/Job-44.odb,Step-1,Increment      1: Step Time =    1.000,"P-44-1",          1220,       167.744,       40.0925,            0.,NA,NA,"",   1.02818E+06,   1.02224E+06,   1.02224E+06
C:/temp/Job-44.odb,Step-1,Increment      1: Step Time =    1.000,"P-44-1",          1221,       165.244,       164.848,            0.,NA,NA,"",   1.02766E+06,   1.02143E+06,   1.02143E+06
C:/temp/Job-44.odb,Step-1,Increment      1: Step Time =    1.000,"P-44-1",          1222,       162.305,       167.559,            0.,NA,NA,"",   1.02788E+06,   1.02136E+06,   1.02136E+06
C:/temp/Job-44.odb,Step-1,Increment      1: Step Time =    1.000,"P-44-1",          1223,       32.3275,       37.1736,            0.,NA,NA,"",   1.02592E+06,   1.06174E+06,   1.06174E+06
C:/temp/Job-44.odb,Step-1,Increment      1: Step Time =    1.000,"P-44-1",          1224,       34.6859,       33.0981,            0.,NA,NA,"",   1.04434E+06,   1.07166E+06,   1.07166E+06
C:/temp/Job-44.odb,Step-1,Increment      1: Step Time =    1.000,"P-44-1",          1225,       163.217,       34.5553,            0.,NA,NA,"",   1.02982E+06,   1.02297E+06,   1.02297E+06
C:/temp/Job-44.odb,Step-1,Increment      1: Step Time =    1.000,"P-44-1",          1226,       33.1305,       163.712,            0.,NA,NA,"",   1.03074E+06,    1.0642E+06,    1.0642E+06
C:/temp/Job-44.odb,Step-1,Increment      1: Step Time =    1.000,"P-44-1",          1227,       120.992,       127.589,            0.,NA,NA,"",   1.26526E+06,   1.21276E+06,   1.21276E+06
C:/temp/Job-44.odb,Step-1,Increment      1: Step Time =    1.000,"P-44-1",          1228,       76.5809,       71.6544,            0.,NA,NA,"",   1.21796E+06,   1.18148E+06,   1.18148E+06
C:/temp/Job-44.odb,Step-1,Increment      1: Step Time =    1.000,"P-44-1",          1229,       147.476,       30.9379,            0.,NA,NA,"",   1.03958E+06,   1.03081E+06,   1.03081E+06
C:/temp/Job-44.odb,Step-1,Increment      1: Step Time =    1.000,"P-44-1",          1230,       170.170,       149.763,            0.,NA,NA,"",   1.02668E+06,   1.02175E+06,   1.02175E+06
C:/temp/Job-44.odb,Step-1,Increment      1: Step Time =    1.000,"P-44-1",          1231,       29.4355,       44.1506,            0.,NA,NA,"",   993.016E+03,   1.04119E+06,   1.04119E+06
C:/temp/Job-44.odb,Step-1,Increment      1: Step Time =    1.000,"P-44-1",          1232,       47.7118,       169.789,            0.,NA,NA,"",   1.05930E+06,   1.06734E+06,   1.06734E+06
C:/temp/Job-44.odb,Step-1,Increment      1: Step Time =    1.000,"P-44-1",          1233,       162.666,       162.334,            0.,NA,NA,"",   1.03394E+06,   1.02600E+06,   1.02600E+06
C:/temp/Job-44.odb,Step-1,Increment      1: Step Time =    1.000,"P-44-1",          1234,       162.755,       40.0652,            0.,NA,NA,"",   1.03661E+06,   1.02807E+06,   1.02807E+06
C:/temp/Job-44.odb,Step-1,Increment      1: Step Time =    1.000,"P-44-1",          1235,       37.8629,       159.220,            0.,NA,NA,"",   1.03057E+06,   1.05964E+06,   1.05964E+06
C:/temp/Job-44.odb,Step-1,Increment      1: Step Time =    1.000,"P-44-1",          1236,       38.1060,       37.5432,            0.,NA,NA,"",   1.03940E+06,   1.06501E+06,   1.06501E+06
C:/temp/Job-44.odb,Step-1,Increment      1: Step Time =    1.000,"P-44-1",          1237,       19.5614,       78.9666,            0.,NA,NA,"",   822.496E+03,   907.395E+03,   907.395E+03
C:/temp/Job-44.odb,Step-1,Increment      1: Step Time =    1.000,"P-44-1",          1238,       179.086,       121.068,            0.,NA,NA,"",   976.198E+03,   992.125E+03,   992.125E+03
C:/temp/Job-44.odb,Step-1,Increment      1: Step Time =    1.000,"P-44-1",          1239,       72.2092,       132.393,            0.,NA,NA,"",   1.16975E+06,   1.14392E+06,   1.14392E+06
C:/temp/Job-44.odb,Step-1,Increment      1: Step Time =    1.000,"P-44-1",          1240,       127.023,       69.9373,            0.,NA,NA,"",   1.21649E+06,   1.16171E+06,   1.16171E+06
C:/temp/Job-44.odb,Step-1,Increment      1: Step Time =    1.000,"P-44-1",          1241,       108.570,       144.082,            0.,NA,NA,"",   1.06783E+06,   1.11075E+06,   1.11075E+06
C:/temp/Job-44.odb,Step-1,Increment      1: Step Time =    1.000,"P-44-1",          1242,       91.1066,       55.3364,            0.,NA,NA,"",   1.06570E+06,   1.11068E+06,   1.11068E+06
C:/temp/Job-44.odb,Step-1,Increment      1: Step Time =    1.000,"P-44-1",          1243,       26.2726,       68.1836,            0.,NA,NA,"",   882.311E+03,   953.210E+03,   953.210E+03
C:/temp/Job-44.odb,Step-1,Increment      1: Step Time =    1.000,"P-44-1",          1244,       170.610,       130.384,            0.,NA,NA,"",   1.00324E+06,   1.00484E+06,   1.00484E+06
C:/temp/Job-44.odb,Step-1,Increment      1: Step Time =    1.000,"P-44-1",          1245,       132.987,       30.5033,            0.,NA,NA,"",   1.03828E+06,   1.03369E+06,   1.03369E+06
C:/temp/Job-44.odb,Step-1,Increment      1: Step Time =    1.000,"P-44-1",          1246,       118.754,       131.222,            0.,NA,NA,"",   1.23641E+06,   1.21140E+06,   1.21140E+06
C:/temp/Job-44.odb,Step-1,Increment      1: Step Time =    1.000,"P-44-1",          1247,       80.0644,       67.9535,            0.,NA,NA,"",   1.20786E+06,   1.19653E+06,   1.19653E+06
C:/temp/Job-44.odb,Step-1,Increment      1: Step Time =    1.000,"P-44-1",          1248,       79.9640,       139.865,            0.,NA,NA,"",   1.14771E+06,   1.15464E+06,   1.15464E+06
C:/temp/Job-44.odb,Step-1,Increment      1: Step Time =    1.000,"P-44-1",          1249,       90.3609,       148.724,            0.,NA,NA,"",   1.05679E+06,   1.09341E+06,   1.09341E+06
C:/temp/Job-44.odb,Step-1,Increment      1: Step Time =    1.000,"P-44-1",          1250,       109.285,       52.2063,            0.,NA,NA,"",   1.05716E+06,   1.09312E+06,   1.09312E+06
C:/temp/Job-44.odb,Step-1,Increment      1: Step Time =    1.000,"P-44-1",          1251,       120.988,       60.2952,            0.,NA,NA,"",   1.15920E+06,   1.14828E+06,   1.14828E+06
C:/temp/Job-44.odb,Step-1,Increment      1: Step Time =    1.000,"P-44-1",          1252,       176.461,       158.215,            0.,NA,NA,"",   1.01477E+06,   1.01352E+06,   1.01352E+06
C:/temp/Job-44.odb,Step-1,Increment      1: Step Time =    1.000,"P-44-1",          1253,       157.854,       24.4319,            0.,NA,NA,"",   1.01939E+06,   1.01451E+06,   1.01451E+06
C:/temp/Job-44.odb,Step-1,Increment      1: Step Time =    1.000,"P-44-1",          1254,       28.3999,       37.2081,            0.,NA,NA,"",   1.01757E+06,   1.06087E+06,   1.06087E+06
C:/temp/Job-44.odb,Step-1,Increment      1: Step Time =    1.000,"P-44-1",          1255,       163.030,       119.995,            0.,NA,NA,"",   977.652E+03,   978.756E+03,   978.756E+03
C:/temp/Job-44.odb,Step-1,Increment      1: Step Time =    1.000,"P-44-1",          1256,       84.0807,       164.464,            0.,NA,NA,"",   1.03502E+06,   1.04940E+06,   1.04940E+06
C:/temp/Job-44.odb,Step-1,Increment      1: Step Time =    1.000,"P-44-1",          1257,       34.1288,       83.8110,            0.,NA,NA,"",   835.903E+03,   903.804E+03,   903.804E+03
C:/temp/Job-44.odb,Step-1,Increment      1: Step Time =    1.000,"P-44-1",          1258,       118.594,       35.4856,            0.,NA,NA,"",   1.03547E+06,   1.04314E+06,   1.04314E+06
C:/temp/Job-44.odb,Step-1,Increment      1: Step Time =    1.000,"P-44-1",          1259,       74.8585,       65.0611,            0.,NA,NA,"",   1.17369E+06,   1.15659E+06,   1.15659E+06
C:/temp/Job-44.odb,Step-1,Increment      1: Step Time =    1.000,"P-44-1",          1260,       140.956,       77.3076,            0.,NA,NA,"",   1.05924E+06,   1.01784E+06,   1.01784E+06
C:/temp/Job-44.odb,Step-1,Increment      1: Step Time =    1.000,"P-44-1",          1261,       60.5591,       124.203,            0.,NA,NA,"",   1.02540E+06,   1.01893E+06,   1.01893E+06
C:/temp/Job-44.odb,Step-1,Increment      1: Step Time =    1.000,"P-44-1",          1262,       124.686,       130.971,            0.,NA,NA,"",   1.22383E+06,   1.17420E+06,   1.17420E+06
C:/temp/Job-44.odb,Step-1,Increment      1: Step Time =    1.000,"P-44-1",          1263,       184.752,       184.560,            0.,NA,NA,"",   1.00122E+06,   1.00123E+06,   1.00123E+06
C:/temp/Job-44.odb,Step-1,Increment      1: Step Time =    1.000,"P-44-1",          1264,       183.953,       15.6702,            0.,NA,NA,"",   1.00146E+06,   1.00136E+06,   1.00136E+06
C:/temp/Job-44.odb,Step-1,Increment      1: Step Time =    1.000,"P-44-1",          1265,       16.0831,       14.5221,            0.,NA,NA,"",   1.12754E+06,   1.16253E+06,   1.16253E+06
C:/temp/Job-44.odb,Step-1,Increment      1: Step Time =    1.000,"P-44-1",          1266,       163.758,       92.0001,            0.,NA,NA,"",   931.332E+03,   943.723E+03,   943.723E+03
C:/temp/Job-44.odb,Step-1,Increment      1: Step Time =    1.000,"P-44-1",          1267,       104.762,       164.213,            0.,NA,NA,"",   1.01499E+06,   1.03577E+06,   1.03577E+06
C:/temp/Job-44.odb,Step-1,Increment      1: Step Time =    1.000,"P-44-1",          1268,       37.4421,       105.846,            0.,NA,NA,"",   798.626E+03,   867.611E+03,   867.611E+03
C:/temp/Job-44.odb,Step-1,Increment      1: Step Time =    1.000,"P-44-1",          1269,       96.4660,       34.1008,            0.,NA,NA,"",    1.0121E+06,   1.03283E+06,   1.03283E+06
C:/temp/Job-44.odb,Step-1,Increment      1: Step Time =    1.000,"P-44-1",          1270,       161.108,       85.2248,            0.,NA,NA,"",   954.251E+03,   958.704E+03,   958.704E+03
C:/temp/Job-44.odb,Step-1,Increment      1: Step Time =    1.000,"P-44-1",          1271,       114.286,       165.058,            0.,NA,NA,"",   1.02620E+06,   1.03860E+06,   1.03860E+06
C:/temp/Job-44.odb,Step-1,Increment      1: Step Time =    1.000,"P-44-1",          1272,       36.5816,       115.741,            0.,NA,NA,"",   838.516E+03,   902.859E+03,   902.859E+03
C:/temp/Job-44.odb,Step-1,Increment      1: Step Time =    1.000,"P-44-1",          1273,       83.7082,       37.0816,            0.,NA,NA,"",   1.04040E+06,   1.05541E+06,   1.05541E+06
C:/temp/Job-44.odb,Step-1,Increment      1: Step Time =    1.000,"P-44-1",          1274,       143.056,       109.646,            0.,NA,NA,"",   868.133E+03,   862.534E+03,   862.534E+03
C:/temp/Job-44.odb,Step-1,Increment      1: Step Time =    1.000,"P-44-1",          1275,       99.5202,       143.695,            0.,NA,NA,"",   1.04372E+06,   1.10240E+06,   1.10240E+06
C:/temp/Job-44.odb,Step-1,Increment      1: Step Time =    1.000,"P-44-1",          1276,       125.409,       161.674,            0.,NA,NA,"",   1.05635E+06,   1.05547E+06,   1.05547E+06
C:/temp/Job-44.odb,Step-1,Increment      1: Step Time =    1.000,"P-44-1",          1277,       76.1223,       36.8441,            0.,NA,NA,"",   1.05622E+06,   1.06386E+06,   1.06386E+06
C:/temp/Job-44.odb,Step-1,Increment      1: Step Time =    1.000,"P-44-1",          1278,       37.3464,       125.200,            0.,NA,NA,"",   892.502E+03,   947.332E+03,   947.332E+03
C:/temp/Job-44.odb,Step-1,Increment      1: Step Time =    1.000,"P-44-1",          1279,       165.543,       74.1637,            0.,NA,NA,"",   998.600E+03,   997.384E+03,   997.384E+03
C:/temp/Job-44.odb,Step-1,Increment      1: Step Time =    1.000,"P-44-1",          1280,       100.565,       51.5741,            0.,NA,NA,"",   1.03579E+06,   1.08304E+06,   1.08304E+06
C:/temp/Job-44.odb,Step-1,Increment      1: Step Time =    1.000,"P-44-1",          1281,       162.631,       104.870,            0.,NA,NA,"",   917.850E+03,   932.211E+03,   932.211E+03
C:/temp/Job-44.odb,Step-1,Increment      1: Step Time =    1.000,"P-44-1",          1282,       93.9346,       163.787,            0.,NA,NA,"",   1.01916E+06,   1.04077E+06,   1.04077E+06
C:/temp/Job-44.odb,Step-1,Increment      1: Step Time =    1.000,"P-44-1",          1283,       36.7395,       97.4179,            0.,NA,NA,"",   795.642E+03,   866.060E+03,   866.060E+03
C:/temp/Job-44.odb,Step-1,Increment      1: Step Time =    1.000,"P-44-1",          1284,       134.407,       163.793,            0.,NA,NA,"",   1.05736E+06,   1.04891E+06,   1.04891E+06
C:/temp/Job-44.odb,Step-1,Increment      1: Step Time =    1.000,"P-44-1",          1285,       66.0132,       37.9527,            0.,NA,NA,"",   1.07232E+06,   1.07424E+06,   1.07424E+06
C:/temp/Job-44.odb,Step-1,Increment      1: Step Time =    1.000,"P-44-1",          1286,       36.6884,       134.821,            0.,NA,NA,"",   941.837E+03,   989.755E+03,   989.755E+03
C:/temp/Job-44.odb,Step-1,Increment      1: Step Time =    1.000,"P-44-1",          1287,       165.202,       64.9275,            0.,NA,NA,"",   1.02449E+06,   1.01755E+06,   1.01755E+06
C:/temp/Job-44.odb,Step-1,Increment      1: Step Time =    1.000,"P-44-1",          1288,       35.2698,       74.0793,            0.,NA,NA,"",   888.158E+03,   946.409E+03,   946.409E+03
C:/temp/Job-44.odb,Step-1,Increment      1: Step Time =    1.000,"P-44-1",          1289,       127.480,       36.7773,            0.,NA,NA,"",   1.05338E+06,   1.05080E+06,   1.05080E+06
C:/temp/Job-44.odb,Step-1,Increment      1: Step Time =    1.000,"P-44-1",          1290,       165.991,       125.830,            0.,NA,NA,"",   996.889E+03,   996.524E+03,   996.524E+03
C:/temp/Job-44.odb,Step-1,Increment      1: Step Time =    1.000,"P-44-1",          1291,       75.2575,       165.699,            0.,NA,NA,"",   1.04999E+06,   1.05676E+06,   1.05676E+06
C:/temp/Job-44.odb,Step-1,Increment      1: Step Time =    1.000,"P-44-1",          1292,       104.402,       56.6311,            0.,NA,NA,"",   1.05248E+06,   1.10730E+06,   1.10730E+06
C:/temp/Job-44.odb,Step-1,Increment      1: Step Time =    1.000,"P-44-1",          1293,       94.8609,       143.665,            0.,NA,NA,"",   1.05501E+06,   1.10871E+06,   1.10871E+06
C:/temp/Job-44.odb,Step-1,Increment      1: Step Time =    1.000,"P-44-1",          1294,       133.327,       121.458,            0.,NA,NA,"",   1.12016E+06,   1.05409E+06,   1.05409E+06
C:/temp/Job-44.odb,Step-1,Increment      1: Step Time =    1.000,"P-44-1",          1295,       64.4501,       77.9411,            0.,NA,NA,"",   1.03502E+06,   1.01396E+06,   1.01396E+06
C:/temp/Job-44.odb,Step-1,Increment      1: Step Time =    1.000,"P-44-1",          1296,       189.289,       15.6227,            0.,NA,NA,"",   1.00069E+06,   1.00071E+06,   1.00071E+06
C:/temp/Job-44.odb,Step-1,Increment      1: Step Time =    1.000,"P-44-1",          1297,       184.687,       189.618,            0.,NA,NA,"",   1.00042E+06,   1.00041E+06,   1.00041E+06
C:/temp/Job-44.odb,Step-1,Increment      1: Step Time =    1.000,"P-44-1",          1298,       15.6445,       9.87029,            0.,NA,NA,"",   1.15990E+06,   1.18007E+06,   1.18007E+06
C:/temp/Job-44.odb,Step-1,Increment      1: Step Time =    1.000,"P-44-1",          1299,       10.4847,       184.669,            0.,NA,NA,"",   1.10961E+06,   1.17180E+06,   1.17180E+06
C:/temp/Job-44.odb,Step-1,Increment      1: Step Time =    1.000,"P-44-1",          1300,       159.302,       165.401,            0.,NA,NA,"",   1.03418E+06,   1.02600E+06,   1.02600E+06
C:/temp/Job-44.odb,Step-1,Increment      1: Step Time =    1.000,"P-44-1",          1301,       34.0935,       159.320,            0.,NA,NA,"",   1.02060E+06,   1.05613E+06,   1.05613E+06
C:/temp/Job-44.odb,Step-1,Increment      1: Step Time =    1.000,"P-44-1",          1302,       167.051,       45.3947,            0.,NA,NA,"",   1.03260E+06,   1.02552E+06,   1.02552E+06
C:/temp/Job-44.odb,Step-1,Increment      1: Step Time =    1.000,"P-44-1",          1303,       39.9700,       32.4295,            0.,NA,NA,"",   1.05233E+06,   1.07058E+06,   1.07058E+06
C:/temp/Job-44.odb,Step-1,Increment      1: Step Time =    1.000,"P-44-1",          1304,       68.6569,       134.034,            0.,NA,NA,"",   1.14174E+06,   1.12058E+06,   1.12058E+06
C:/temp/Job-44.odb,Step-1,Increment      1: Step Time =    1.000,"P-44-1",          1305,       133.372,       67.0277,            0.,NA,NA,"",   1.16600E+06,   1.11823E+06,   1.11823E+06
C:/temp/Job-44.odb,Step-1,Increment      1: Step Time =    1.000,"P-44-1",          1306,       77.5288,       130.206,            0.,NA,NA,"",   1.21356E+06,   1.18810E+06,   1.18810E+06
C:/temp/Job-44.odb,Step-1,Increment      1: Step Time =    1.000,"P-44-1",          1307,       120.422,       71.5913,            0.,NA,NA,"",   1.26140E+06,   1.21898E+06,   1.21898E+06
C:/temp/Job-44.odb,Step-1,Increment      1: Step Time =    1.000,"P-44-1",          1308,       112.953,       144.542,            0.,NA,NA,"",   1.09010E+06,   1.11716E+06,   1.11716E+06
C:/temp/Job-44.odb,Step-1,Increment      1: Step Time =    1.000,"P-44-1",          1309,       85.9318,       58.9390,            0.,NA,NA,"",   1.11857E+06,   1.14739E+06,   1.14739E+06
C:/temp/Job-44.odb,Step-1,Increment      1: Step Time =    1.000,"P-44-1",          1310,       122.481,       136.478,            0.,NA,NA,"",   1.19412E+06,   1.16865E+06,   1.16865E+06
C:/temp/Job-44.odb,Step-1,Increment      1: Step Time =    1.000,"P-44-1",          1311,       80.7058,       62.4489,            0.,NA,NA,"",   1.16577E+06,   1.16815E+06,   1.16815E+06
C:/temp/Job-44.odb,Step-1,Increment      1: Step Time =    1.000,"P-44-1",          1312,       80.7045,       144.684,            0.,NA,NA,"",   1.11393E+06,   1.12759E+06,   1.12759E+06
C:/temp/Job-44.odb,Step-1,Increment      1: Step Time =    1.000,"P-44-1",          1313,       120.615,       53.9381,            0.,NA,NA,"",   1.11615E+06,   1.11673E+06,   1.11673E+06
C:/temp/Job-44.odb,Step-1,Increment      1: Step Time =    1.000,"P-44-1",          1314,       99.6350,       148.710,            0.,NA,NA,"",   1.03494E+06,   1.08187E+06,   1.08187E+06
C:/temp/Job-44.odb,Step-1,Increment      1: Step Time =    1.000,"P-44-1",          1315,       101.104,       46.7609,            0.,NA,NA,"",   1.02843E+06,   1.06640E+06,   1.06640E+06
C:/temp/Job-44.odb,Step-1,Increment      1: Step Time =    1.000,"P-44-1",          1316,       164.278,       114.120,            0.,NA,NA,"",   952.635E+03,   960.352E+03,   960.352E+03
C:/temp/Job-44.odb,Step-1,Increment      1: Step Time =    1.000,"P-44-1",          1317,       161.738,       124.509,            0.,NA,NA,"",   998.590E+03,   993.804E+03,   993.804E+03
C:/temp/Job-44.odb,Step-1,Increment      1: Step Time =    1.000,"P-44-1",          1318,       82.1118,       159.219,            0.,NA,NA,"",   1.05346E+06,   1.06883E+06,   1.06883E+06
C:/temp/Job-44.odb,Step-1,Increment      1: Step Time =    1.000,"P-44-1",          1319,       121.966,       40.5740,            0.,NA,NA,"",   1.05842E+06,   1.06195E+06,   1.06195E+06
C:/temp/Job-44.odb,Step-1,Increment      1: Step Time =    1.000,"P-44-1",          1320,       111.631,       32.4360,            0.,NA,NA,"",   1.01629E+06,   1.02935E+06,   1.02935E+06
C:/temp/Job-44.odb,Step-1,Increment      1: Step Time =    1.000,"P-44-1",          1321,       39.4471,       79.4879,            0.,NA,NA,"",   870.722E+03,   926.197E+03,   926.197E+03
C:/temp/Job-44.odb,Step-1,Increment      1: Step Time =    1.000,"P-44-1",          1322,       33.7157,       89.5965,            0.,NA,NA,"",   812.982E+03,   884.677E+03,   884.677E+03
C:/temp/Job-44.odb,Step-1,Increment      1: Step Time =    1.000,"P-44-1",          1323,       72.3034,       68.5151,            0.,NA,NA,"",   1.17494E+06,   1.14767E+06,   1.14767E+06
C:/temp/Job-44.odb,Step-1,Increment      1: Step Time =    1.000,"P-44-1",          1324,       141.175,       73.1740,            0.,NA,NA,"",   1.09443E+06,   1.05025E+06,   1.05025E+06
C:/temp/Job-44.odb,Step-1,Increment      1: Step Time =    1.000,"P-44-1",          1325,       57.9371,       127.796,            0.,NA,NA,"",   1.02891E+06,   1.02932E+06,   1.02932E+06
C:/temp/Job-44.odb,Step-1,Increment      1: Step Time =    1.000,"P-44-1",          1326,       131.384,       132.255,            0.,NA,NA,"",   1.17566E+06,   1.12491E+06,   1.12491E+06
C:/temp/Job-44.odb,Step-1,Increment      1: Step Time =    1.000,"P-44-1",          1327,       109.673,       164.359,            0.,NA,NA,"",   1.02046E+06,   1.03735E+06,   1.03735E+06
C:/temp/Job-44.odb,Step-1,Increment      1: Step Time =    1.000,"P-44-1",          1328,       158.988,       88.3384,            0.,NA,NA,"",   934.374E+03,   940.638E+03,   940.638E+03
C:/temp/Job-44.odb,Step-1,Increment      1: Step Time =    1.000,"P-44-1",          1329,       92.5944,       37.6230,            0.,NA,NA,"",   1.02248E+06,   1.04568E+06,   1.04568E+06
C:/temp/Job-44.odb,Step-1,Increment      1: Step Time =    1.000,"P-44-1",          1330,       38.9990,       110.091,            0.,NA,NA,"",   812.296E+03,   877.724E+03,   877.724E+03
C:/temp/Job-44.odb,Step-1,Increment      1: Step Time =    1.000,"P-44-1",          1331,       121.055,       160.519,            0.,NA,NA,"",   1.05190E+06,   1.05684E+06,   1.05684E+06
C:/temp/Job-44.odb,Step-1,Increment      1: Step Time =    1.000,"P-44-1",          1332,       160.433,       78.9868,            0.,NA,NA,"",   984.185E+03,   981.398E+03,   981.398E+03
C:/temp/Job-44.odb,Step-1,Increment      1: Step Time =    1.000,"P-44-1",          1333,       80.6101,       39.8919,            0.,NA,NA,"",   1.05515E+06,   1.06823E+06,   1.06823E+06
C:/temp/Job-44.odb,Step-1,Increment      1: Step Time =    1.000,"P-44-1",          1334,       37.6615,       120.382,            0.,NA,NA,"",   865.239E+03,   924.196E+03,   924.196E+03
C:/temp/Job-44.odb,Step-1,Increment      1: Step Time =    1.000,"P-44-1",          1335,       52.5668,       92.2496,            0.,NA,NA,"",   784.547E+03,   833.201E+03,   833.201E+03
C:/temp/Job-44.odb,Step-1,Increment      1: Step Time =    1.000,"P-44-1",          1336,       148.483,       112.193,            0.,NA,NA,"",   917.462E+03,   913.005E+03,   913.005E+03
C:/temp/Job-44.odb,Step-1,Increment      1: Step Time =    1.000,"P-44-1",          1337,       99.7913,       158.855,            0.,NA,NA,"",   1.02122E+06,   1.05054E+06,   1.05054E+06
C:/temp/Job-44.odb,Step-1,Increment      1: Step Time =    1.000,"P-44-1",          1338,       160.733,       98.1791,            0.,NA,NA,"",   907.645E+03,   922.082E+03,   922.082E+03
C:/temp/Job-44.odb,Step-1,Increment      1: Step Time =    1.000,"P-44-1",          1339,       101.500,       36.6783,            0.,NA,NA,"",   1.01458E+06,   1.03781E+06,   1.03781E+06
C:/temp/Job-44.odb,Step-1,Increment      1: Step Time =    1.000,"P-44-1",          1340,       41.0257,       102.431,            0.,NA,NA,"",   789.409E+03,   855.920E+03,   855.920E+03
C:/temp/Job-44.odb,Step-1,Increment      1: Step Time =    1.000,"P-44-1",          1341,       130.824,       158.257,            0.,NA,NA,"",   1.07596E+06,   1.06694E+06,   1.06694E+06
C:/temp/Job-44.odb,Step-1,Increment      1: Step Time =    1.000,"P-44-1",          1342,       138.977,       163.203,            0.,NA,NA,"",   1.05970E+06,   1.04857E+06,   1.04857E+06
C:/temp/Job-44.odb,Step-1,Increment      1: Step Time =    1.000,"P-44-1",          1343,       70.7168,       37.3937,            0.,NA,NA,"",   1.06701E+06,   1.07055E+06,   1.07055E+06
C:/temp/Job-44.odb,Step-1,Increment      1: Step Time =    1.000,"P-44-1",          1344,       60.8498,       34.5702,            0.,NA,NA,"",   1.06615E+06,   1.06813E+06,   1.06813E+06
C:/temp/Job-44.odb,Step-1,Increment      1: Step Time =    1.000,"P-44-1",          1345,       42.7430,       130.945,            0.,NA,NA,"",   951.899E+03,   989.503E+03,   989.503E+03
C:/temp/Job-44.odb,Step-1,Increment      1: Step Time =    1.000,"P-44-1",          1346,       32.6691,       140.342,            0.,NA,NA,"",   947.878E+03,   1.00033E+06,   1.00033E+06
C:/temp/Job-44.odb,Step-1,Increment      1: Step Time =    1.000,"P-44-1",          1347,       160.423,       69.9135,            0.,NA,NA,"",   1.02307E+06,   1.01269E+06,   1.01269E+06
C:/temp/Job-44.odb,Step-1,Increment      1: Step Time =    1.000,"P-44-1",          1348,       165.616,       60.2816,            0.,NA,NA,"",   1.03174E+06,   1.02360E+06,   1.02360E+06
C:/temp/Job-44.odb,Step-1,Increment      1: Step Time =    1.000,"P-44-1",          1349,       69.7676,       165.257,            0.,NA,NA,"",   1.06011E+06,   1.06359E+06,   1.06359E+06
C:/temp/Job-44.odb,Step-1,Increment      1: Step Time =    1.000,"P-44-1",          1350,       140.056,       121.991,            0.,NA,NA,"",   1.06187E+06,   1.01788E+06,   1.01788E+06
C:/temp/Job-44.odb,Step-1,Increment      1: Step Time =    1.000,"P-44-1",          1351,       59.4139,       78.1736,            0.,NA,NA,"",   978.928E+03,   980.183E+03,   980.183E+03
C:/temp/Job-44.odb,Step-1,Increment      1: Step Time =    1.000,"P-44-1",          1352,       69.3990,       77.6987,            0.,NA,NA,"",   1.10949E+06,   1.06325E+06,   1.06325E+06
C:/temp/Job-44.odb,Step-1,Increment      1: Step Time =    1.000,"P-44-1",          1353,       152.677,       35.3558,            0.,NA,NA,"",   1.04462E+06,   1.03420E+06,   1.03420E+06
C:/temp/Job-44.odb,Step-1,Increment      1: Step Time =    1.000,"P-44-1",          1354,       162.770,       150.997,            0.,NA,NA,"",   1.04312E+06,   1.03241E+06,   1.03241E+06
C:/temp/Job-44.odb,Step-1,Increment      1: Step Time =    1.000,"P-44-1",          1355,       33.1575,       47.8059,            0.,NA,NA,"",   993.820E+03,   1.03709E+06,   1.03709E+06
C:/temp/Job-44.odb,Step-1,Increment      1: Step Time =    1.000,"P-44-1",          1356,       45.6442,       166.503,            0.,NA,NA,"",   1.05763E+06,   1.06941E+06,   1.06941E+06
C:/temp/Job-44.odb,Step-1,Increment      1: Step Time =    1.000,"P-44-1",          1357,       108.500,       153.734,            0.,NA,NA,"",   1.04005E+06,   1.06974E+06,   1.06974E+06
C:/temp/Job-44.odb,Step-1,Increment      1: Step Time =    1.000,"P-44-1",          1358,       91.6407,       50.7539,            0.,NA,NA,"",   1.04985E+06,   1.08886E+06,   1.08886E+06
C:/temp/Job-44.odb,Step-1,Increment      1: Step Time =    1.000,"P-44-1",          1359,       41.1312,       42.7645,            0.,NA,NA,"",   1.03705E+06,   1.06107E+06,   1.06107E+06
C:/temp/Job-44.odb,Step-1,Increment      1: Step Time =    1.000,"P-44-1",          1360,       43.5110,       162.470,            0.,NA,NA,"",   1.05131E+06,   1.06832E+06,   1.06832E+06
C:/temp/Job-44.odb,Step-1,Increment      1: Step Time =    1.000,"P-44-1",          1361,       157.850,       34.9856,            0.,NA,NA,"",   1.03753E+06,   1.02862E+06,   1.02862E+06
C:/temp/Job-44.odb,Step-1,Increment      1: Step Time =    1.000,"P-44-1",          1362,       163.165,       156.769,            0.,NA,NA,"",   1.03904E+06,   1.02974E+06,   1.02974E+06
C:/temp/Job-44.odb,Step-1,Increment      1: Step Time =    1.000,"P-44-1",          1363,       44.2444,       32.5945,            0.,NA,NA,"",   1.05727E+06,   1.07013E+06,   1.07013E+06
C:/temp/Job-44.odb,Step-1,Increment      1: Step Time =    1.000,"P-44-1",          1364,       153.942,       165.123,            0.,NA,NA,"",   1.04179E+06,   1.03175E+06,   1.03175E+06
C:/temp/Job-44.odb,Step-1,Increment      1: Step Time =    1.000,"P-44-1",          1365,       31.0439,       157.919,            0.,NA,NA,"",   1.00690E+06,   1.04946E+06,   1.04946E+06
C:/temp/Job-44.odb,Step-1,Increment      1: Step Time =    1.000,"P-44-1",          1366,       123.695,       58.9341,            0.,NA,NA,"",   1.15435E+06,   1.13681E+06,   1.13681E+06
C:/temp/Job-44.odb,Step-1,Increment      1: Step Time =    1.000,"P-44-1",          1367,       75.2123,       141.610,            0.,NA,NA,"",   1.14250E+06,   1.13928E+06,   1.13928E+06
C:/temp/Job-44.odb,Step-1,Increment      1: Step Time =    1.000,"P-44-1",          1368,       119.246,       49.2621,            0.,NA,NA,"",   1.08589E+06,   1.09351E+06,   1.09351E+06
C:/temp/Job-44.odb,Step-1,Increment      1: Step Time =    1.000,"P-44-1",          1369,       80.5269,       149.414,            0.,NA,NA,"",   1.09042E+06,   1.10582E+06,   1.10582E+06
C:/temp/Job-44.odb,Step-1,Increment      1: Step Time =    1.000,"P-44-1",          1370,       35.6292,       93.7473,            0.,NA,NA,"",   801.798E+03,   872.612E+03,   872.612E+03
C:/temp/Job-44.odb,Step-1,Increment      1: Step Time =    1.000,"P-44-1",          1371,       163.074,       109.068,            0.,NA,NA,"",   929.243E+03,   941.173E+03,   941.173E+03
C:/temp/Job-44.odb,Step-1,Increment      1: Step Time =    1.000,"P-44-1",          1372,       88.7949,       165.434,            0.,NA,NA,"",   1.02395E+06,   1.04115E+06,   1.04115E+06
C:/temp/Job-44.odb,Step-1,Increment      1: Step Time =    1.000,"P-44-1",          1373,       162.098,       116.226,            0.,NA,NA,"",   960.277E+03,   964.208E+03,   964.208E+03
C:/temp/Job-44.odb,Step-1,Increment      1: Step Time =    1.000,"P-44-1",          1374,       87.5683,       162.174,            0.,NA,NA,"",   1.03293E+06,   1.05265E+06,   1.05265E+06
C:/temp/Job-44.odb,Step-1,Increment      1: Step Time =    1.000,"P-44-1",          1375,       112.533,       38.3905,            0.,NA,NA,"",   1.03140E+06,   1.04769E+06,   1.04769E+06
C:/temp/Job-44.odb,Step-1,Increment      1: Step Time =    1.000,"P-44-1",          1376,       39.0255,       88.7101,            0.,NA,NA,"",   818.815E+03,   883.135E+03,   883.135E+03
C:/temp/Job-44.odb,Step-1,Increment      1: Step Time =    1.000,"P-44-1",          1377,       68.8611,       72.2563,            0.,NA,NA,"",   1.14546E+06,   1.11081E+06,   1.11081E+06
C:/temp/Job-44.odb,Step-1,Increment      1: Step Time =    1.000,"P-44-1",          1378,       145.768,       76.4775,            0.,NA,NA,"",   1.03804E+06,   1.00871E+06,   1.00871E+06
C:/temp/Job-44.odb,Step-1,Increment      1: Step Time =    1.000,"P-44-1",          1379,       142.291,       68.9008,            0.,NA,NA,"",   1.10783E+06,   1.06697E+06,   1.06697E+06
C:/temp/Job-44.odb,Step-1,Increment      1: Step Time =    1.000,"P-44-1",          1380,       61.9607,       130.191,            0.,NA,NA,"",   1.07803E+06,   1.06690E+06,   1.06690E+06
C:/temp/Job-44.odb,Step-1,Increment      1: Step Time =    1.000,"P-44-1",          1381,       56.4337,       121.853,            0.,NA,NA,"",   965.466E+03,   975.772E+03,   975.772E+03
C:/temp/Job-44.odb,Step-1,Increment      1: Step Time =    1.000,"P-44-1",          1382,       48.2647,       92.3660,            0.,NA,NA,"",   793.913E+03,   848.981E+03,   848.981E+03
C:/temp/Job-44.odb,Step-1,Increment      1: Step Time =    1.000,"P-44-1",          1383,       154.451,       105.030,            0.,NA,NA,"",   883.821E+03,   895.760E+03,   895.760E+03
C:/temp/Job-44.odb,Step-1,Increment      1: Step Time =    1.000,"P-44-1",          1384,       140.668,       158.756,            0.,NA,NA,"",   1.07223E+06,   1.05734E+06,   1.05734E+06
C:/temp/Job-44.odb,Step-1,Increment      1: Step Time =    1.000,"P-44-1",          1385,       61.9841,       38.6382,            0.,NA,NA,"",   1.07369E+06,   1.07558E+06,   1.07558E+06
C:/temp/Job-44.odb,Step-1,Increment      1: Step Time =    1.000,"P-44-1",          1386,       37.5189,       139.491,            0.,NA,NA,"",   966.203E+03,   1.00932E+06,   1.00932E+06
C:/temp/Job-44.odb,Step-1,Increment      1: Step Time =    1.000,"P-44-1",          1387,       160.723,       60.0349,            0.,NA,NA,"",   1.04549E+06,   1.03196E+06,   1.03196E+06
C:/temp/Job-44.odb,Step-1,Increment      1: Step Time =    1.000,"P-44-1",          1388,       143.322,       119.478,            0.,NA,NA,"",   1.01351E+06,   982.274E+03,   982.274E+03
C:/temp/Job-44.odb,Step-1,Increment      1: Step Time =    1.000,"P-44-1",          1389,       59.7884,       82.5391,            0.,NA,NA,"",   919.898E+03,   928.107E+03,   928.107E+03
C:/temp/Job-44.odb,Step-1,Increment      1: Step Time =    1.000,"P-44-1",          1390,       78.8223,       135.092,            0.,NA,NA,"",   1.18661E+06,   1.17962E+06,   1.17962E+06
C:/temp/Job-44.odb,Step-1,Increment      1: Step Time =    1.000,"P-44-1",          1391,       122.883,       62.8112,            0.,NA,NA,"",   1.18329E+06,   1.16063E+06,   1.16063E+06
C:/temp/Job-44.odb,Step-1,Increment      1: Step Time =    1.000,"P-44-1",          1392,       104.308,       153.897,            0.,NA,NA,"",   1.03066E+06,   1.06558E+06,   1.06558E+06
C:/temp/Job-44.odb,Step-1,Increment      1: Step Time =    1.000,"P-44-1",          1393,       96.5933,       46.5426,            0.,NA,NA,"",   1.03074E+06,   1.06784E+06,   1.06784E+06
C:/temp/Job-44.odb,Step-1,Increment      1: Step Time =    1.000,"P-44-1",          1394,       81.4804,       57.8940,            0.,NA,NA,"",   1.13226E+06,   1.14404E+06,   1.14404E+06
C:/temp/Job-44.odb,Step-1,Increment      1: Step Time =    1.000,"P-44-1",          1395,       117.285,       145.176,            0.,NA,NA,"",   1.10938E+06,   1.12006E+06,   1.12006E+06
C:/temp/Job-44.odb,Step-1,Increment      1: Step Time =    1.000,"P-44-1",          1396,       77.1643,       56.6509,            0.,NA,NA,"",   1.13374E+06,   1.13549E+06,   1.13549E+06
C:/temp/Job-44.odb,Step-1,Increment      1: Step Time =    1.000,"P-44-1",          1397,       122.106,       141.046,            0.,NA,NA,"",   1.15665E+06,   1.14375E+06,   1.14375E+06
C:/temp/Job-44.odb,Step-1,Increment      1: Step Time =    1.000,"P-44-1",          1398,       36.8201,       70.0036,            0.,NA,NA,"",   915.293E+03,   967.274E+03,   967.274E+03
C:/temp/Job-44.odb,Step-1,Increment      1: Step Time =    1.000,"P-44-1",          1399,       73.0426,       162.113,            0.,NA,NA,"",   1.06278E+06,   1.06854E+06,   1.06854E+06
C:/temp/Job-44.odb,Step-1,Increment      1: Step Time =    1.000,"P-44-1",          1400,       161.404,       128.973,            0.,NA,NA,"",   1.01680E+06,   1.00810E+06,   1.00810E+06
C:/temp/Job-44.odb,Step-1,Increment      1: Step Time =    1.000,"P-44-1",          1401,       68.6891,       65.2292,            0.,NA,NA,"",   1.14281E+06,   1.12301E+06,   1.12301E+06
C:/temp/Job-44.odb,Step-1,Increment      1: Step Time =    1.000,"P-44-1",          1402,       105.618,       47.0218,            0.,NA,NA,"",   1.03405E+06,   1.06913E+06,   1.06913E+06
C:/temp/Job-44.odb,Step-1,Increment      1: Step Time =    1.000,"P-44-1",          1403,       95.2044,       153.535,            0.,NA,NA,"",   1.03272E+06,   1.06887E+06,   1.06887E+06
C:/temp/Job-44.odb,Step-1,Increment      1: Step Time =    1.000,"P-44-1",          1404,       87.6959,       45.7659,            0.,NA,NA,"",   1.05024E+06,   1.07707E+06,   1.07707E+06
C:/temp/Job-44.odb,Step-1,Increment      1: Step Time =    1.000,"P-44-1",          1405,       112.164,       154.118,            0.,NA,NA,"",   1.04968E+06,   1.07237E+06,   1.07237E+06
C:/temp/Job-44.odb,Step-1,Increment      1: Step Time =    1.000,"P-44-1",          1406,       101.573,       41.8023,            0.,NA,NA,"",   1.02206E+06,   1.05191E+06,   1.05191E+06
C:/temp/Job-44.odb,Step-1,Increment      1: Step Time =    1.000,"P-44-1",          1407,       99.7578,       153.774,            0.,NA,NA,"",   1.02776E+06,   1.06510E+06,   1.06510E+06
C:/temp/Job-44.odb,Step-1,Increment      1: Step Time =    1.000,"P-44-1",          1408,       65.6175,       67.3292,            0.,NA,NA,"",   1.12136E+06,   1.10192E+06,   1.10192E+06
C:/temp/Job-44.odb,Step-1,Increment      1: Step Time =    1.000,"P-44-1",          1409,       161.430,       133.556,            0.,NA,NA,"",   1.03070E+06,   1.01960E+06,   1.01960E+06
C:/temp/Job-44.odb,Step-1,Increment      1: Step Time =    1.000,"P-44-1",          1410,       66.6437,       161.804,            0.,NA,NA,"",   1.07168E+06,   1.07397E+06,   1.07397E+06
C:/temp/Job-44.odb,Step-1,Increment      1: Step Time =    1.000,"P-44-1",          1411,       36.9073,       63.5396,            0.,NA,NA,"",   947.168E+03,   993.824E+03,   993.824E+03
C:/temp/Job-44.odb,Step-1,Increment      1: Step Time =    1.000,"P-44-1",          1412,       132.704,       36.4719,            0.,NA,NA,"",   1.05626E+06,   1.04933E+06,   1.04933E+06
C:/temp/Job-44.odb,Step-1,Increment      1: Step Time =    1.000,"P-44-1",          1413,       42.0431,       67.5100,            0.,NA,NA,"",   950.035E+03,   989.774E+03,   989.774E+03
C:/temp/Job-44.odb,Step-1,Increment      1: Step Time =    1.000,"P-44-1",          1414,       132.009,       41.4585,            0.,NA,NA,"",   1.07430E+06,   1.06492E+06,   1.06492E+06
C:/temp/Job-44.odb,Step-1,Increment      1: Step Time =    1.000,"P-44-1",          1415,       69.6975,       157.152,            0.,NA,NA,"",   1.08174E+06,   1.08461E+06,   1.08461E+06
C:/temp/Job-44.odb,Step-1,Increment      1: Step Time =    1.000,"P-44-1",          1416,       156.761,       132.814,            0.,NA,NA,"",   1.04381E+06,   1.02661E+06,   1.02661E+06
C:/temp/Job-44.odb,Step-1,Increment      1: Step Time =    1.000,"P-44-1",          1417,       56.4877,       36.3134,            0.,NA,NA,"",   1.06842E+06,   1.07190E+06,   1.07190E+06
C:/temp/Job-44.odb,Step-1,Increment      1: Step Time =    1.000,"P-44-1",          1418,       144.248,       164.198,            0.,NA,NA,"",   1.05423E+06,   1.04249E+06,   1.04249E+06
C:/temp/Job-44.odb,Step-1,Increment      1: Step Time =    1.000,"P-44-1",          1419,       39.1605,       143.988,            0.,NA,NA,"",   990.090E+03,   1.02723E+06,   1.02723E+06
C:/temp/Job-44.odb,Step-1,Increment      1: Step Time =    1.000,"P-44-1",          1420,       161.685,       55.3711,            0.,NA,NA,"",   1.04664E+06,   1.03406E+06,   1.03406E+06
C:/temp/Job-44.odb,Step-1,Increment      1: Step Time =    1.000,"P-44-1",          1421,       62.3382,       42.8824,            0.,NA,NA,"",   1.08147E+06,   1.08260E+06,   1.08260E+06
C:/temp/Job-44.odb,Step-1,Increment      1: Step Time =    1.000,"P-44-1",          1422,       142.905,       155.099,            0.,NA,NA,"",   1.08041E+06,   1.06224E+06,   1.06224E+06
C:/temp/Job-44.odb,Step-1,Increment      1: Step Time =    1.000,"P-44-1",          1423,       43.6151,       142.595,            0.,NA,NA,"",   1.00542E+06,   1.03414E+06,   1.03414E+06
C:/temp/Job-44.odb,Step-1,Increment      1: Step Time =    1.000,"P-44-1",          1424,       156.196,       59.1008,            0.,NA,NA,"",   1.06060E+06,   1.04200E+06,   1.04200E+06
C:/temp/Job-44.odb,Step-1,Increment      1: Step Time =    1.000,"P-44-1",          1425,       28.2876,       155.146,            0.,NA,NA,"",   986.614E+03,   1.03801E+06,   1.03801E+06
C:/temp/Job-44.odb,Step-1,Increment      1: Step Time =    1.000,"P-44-1",          1426,       155.459,       169.273,            0.,NA,NA,"",   1.03280E+06,   1.02488E+06,   1.02488E+06
C:/temp/Job-44.odb,Step-1,Increment      1: Step Time =    1.000,"P-44-1",          1427,       49.2193,       28.9797,            0.,NA,NA,"",   1.05826E+06,   1.06501E+06,   1.06501E+06
C:/temp/Job-44.odb,Step-1,Increment      1: Step Time =    1.000,"P-44-1",          1428,       171.166,       50.5709,            0.,NA,NA,"",   1.02493E+06,   1.02076E+06,   1.02076E+06
C:/temp/Job-44.odb,Step-1,Increment      1: Step Time =    1.000,"P-44-1",          1429,       111.151,       42.8724,            0.,NA,NA,"",   1.03850E+06,   1.06030E+06,   1.06030E+06
C:/temp/Job-44.odb,Step-1,Increment      1: Step Time =    1.000,"P-44-1",          1430,       43.6509,       88.5017,            0.,NA,NA,"",   820.463E+03,   877.988E+03,   877.988E+03
C:/temp/Job-44.odb,Step-1,Increment      1: Step Time =    1.000,"P-44-1",          1431,       158.465,       114.672,            0.,NA,NA,"",   947.731E+03,   950.623E+03,   950.623E+03
C:/temp/Job-44.odb,Step-1,Increment      1: Step Time =    1.000,"P-44-1",          1432,       90.8827,       157.760,            0.,NA,NA,"",   1.03442E+06,   1.06092E+06,   1.06092E+06
C:/temp/Job-44.odb,Step-1,Increment      1: Step Time =    1.000,"P-44-1",          1433,       39.8067,       92.7473,            0.,NA,NA,"",   802.037E+03,    868.03E+03,    868.03E+03
C:/temp/Job-44.odb,Step-1,Increment      1: Step Time =    1.000,"P-44-1",          1434,       107.294,       35.9007,            0.,NA,NA,"",   1.01774E+06,   1.03701E+06,   1.03701E+06
C:/temp/Job-44.odb,Step-1,Increment      1: Step Time =    1.000,"P-44-1",          1435,       160.675,       111.700,            0.,NA,NA,"",   933.565E+03,   941.775E+03,   941.775E+03
C:/temp/Job-44.odb,Step-1,Increment      1: Step Time =    1.000,"P-44-1",          1436,       90.7607,       161.163,            0.,NA,NA,"",   1.02866E+06,   1.05162E+06,   1.05162E+06
C:/temp/Job-44.odb,Step-1,Increment      1: Step Time =    1.000,"P-44-1",          1437,       115.942,       43.9471,            0.,NA,NA,"",   1.05460E+06,   1.06900E+06,   1.06900E+06
C:/temp/Job-44.odb,Step-1,Increment      1: Step Time =    1.000,"P-44-1",          1438,       85.8402,       153.683,            0.,NA,NA,"",   1.05807E+06,   1.08200E+06,   1.08200E+06
C:/temp/Job-44.odb,Step-1,Increment      1: Step Time =    1.000,"P-44-1",          1439,       137.765,       68.1143,            0.,NA,NA,"",   1.13854E+06,   1.09222E+06,   1.09222E+06
C:/temp/Job-44.odb,Step-1,Increment      1: Step Time =    1.000,"P-44-1",          1440,       65.7869,       132.355,            0.,NA,NA,"",   1.11796E+06,   1.09946E+06,   1.09946E+06
C:/temp/Job-44.odb,Step-1,Increment      1: Step Time =    1.000,"P-44-1",          1441,       48.6300,       96.1371,            0.,NA,NA,"",   774.977E+03,   832.626E+03,   832.626E+03
C:/temp/Job-44.odb,Step-1,Increment      1: Step Time =    1.000,"P-44-1",          1442,       152.312,       101.357,            0.,NA,NA,"",   860.461E+03,   874.393E+03,   874.393E+03
C:/temp/Job-44.odb,Step-1,Increment      1: Step Time =    1.000,"P-44-1",          1443,       146.454,       123.461,            0.,NA,NA,"",   1.04004E+06,   1.01028E+06,   1.01028E+06
C:/temp/Job-44.odb,Step-1,Increment      1: Step Time =    1.000,"P-44-1",          1444,       54.3847,       78.0226,            0.,NA,NA,"",   944.320E+03,   962.530E+03,   962.530E+03
C:/temp/Job-44.odb,Step-1,Increment      1: Step Time =    1.000,"P-44-1",          1445,       110.115,       158.622,            0.,NA,NA,"",   1.03392E+06,   1.05585E+06,   1.05585E+06
C:/temp/Job-44.odb,Step-1,Increment      1: Step Time =    1.000,"P-44-1",          1446,       92.4277,       41.8321,            0.,NA,NA,"",   1.03006E+06,   1.05778E+06,   1.05778E+06
C:/temp/Job-44.odb,Step-1,Increment      1: Step Time =    1.000,"P-44-1",          1447,       72.2591,       59.1535,            0.,NA,NA,"",   1.14225E+06,   1.13245E+06,   1.13245E+06
C:/temp/Job-44.odb,Step-1,Increment      1: Step Time =    1.000,"P-44-1",          1448,       126.544,       141.936,            0.,NA,NA,"",   1.15280E+06,   1.12951E+06,   1.12951E+06
C:/temp/Job-44.odb,Step-1,Increment      1: Step Time =    1.000,"P-44-1",          1449,       110.135,       47.5357,            0.,NA,NA,"",   1.04703E+06,   1.07540E+06,   1.07540E+06
C:/temp/Job-44.odb,Step-1,Increment      1: Step Time =    1.000,"P-44-1",          1450,       90.6367,       153.417,            0.,NA,NA,"",   1.04379E+06,   1.07506E+06,   1.07506E+06
C:/temp/Job-44.odb,Step-1,Increment      1: Step Time =    1.000,"P-44-1",          1451,       82.7853,       49.2373,            0.,NA,NA,"",   1.07926E+06,   1.09855E+06,   1.09855E+06
C:/temp/Job-44.odb,Step-1,Increment      1: Step Time =    1.000,"P-44-1",          1452,       116.927,       150.159,            0.,NA,NA,"",   1.08111E+06,   1.09434E+06,   1.09434E+06
C:/temp/Job-44.odb,Step-1,Increment      1: Step Time =    1.000,"P-44-1",          1453,       69.2840,       140.427,            0.,NA,NA,"",   1.13469E+06,   1.12352E+06,   1.12352E+06
C:/temp/Job-44.odb,Step-1,Increment      1: Step Time =    1.000,"P-44-1",          1454,       55.2806,       131.139,            0.,NA,NA,"",   1.02788E+06,   1.03460E+06,   1.03460E+06
C:/temp/Job-44.odb,Step-1,Increment      1: Step Time =    1.000,"P-44-1",          1455,       146.889,       69.4791,            0.,NA,NA,"",   1.07625E+06,   1.04392E+06,   1.04392E+06
C:/temp/Job-44.odb,Step-1,Increment      1: Step Time =    1.000,"P-44-1",          1456,       150.084,       76.4715,            0.,NA,NA,"",   1.02104E+06,   999.571E+03,   999.571E+03
C:/temp/Job-44.odb,Step-1,Increment      1: Step Time =    1.000,"P-44-1",          1457,       52.1986,       119.326,            0.,NA,NA,"",   909.139E+03,   937.173E+03,   937.173E+03
C:/temp/Job-44.odb,Step-1,Increment      1: Step Time =    1.000,"P-44-1",          1458,       64.5279,       57.8201,            0.,NA,NA,"",   1.11000E+06,   1.10266E+06,   1.10266E+06
C:/temp/Job-44.odb,Step-1,Increment      1: Step Time =    1.000,"P-44-1",          1459,       48.8558,       80.9983,            0.,NA,NA,"",   886.865E+03,   924.959E+03,   924.959E+03
C:/temp/Job-44.odb,Step-1,Increment      1: Step Time =    1.000,"P-44-1",          1460,       150.953,       121.728,            0.,NA,NA,"",   1.00694E+06,   988.641E+03,   988.641E+03
C:/temp/Job-44.odb,Step-1,Increment      1: Step Time =    1.000,"P-44-1",          1461,       132.763,       139.653,            0.,NA,NA,"",   1.15058E+06,   1.11504E+06,   1.11504E+06
C:/temp/Job-44.odb,Step-1,Increment      1: Step Time =    1.000,"P-44-1",          1462,       44.9365,       76.1262,            0.,NA,NA,"",   910.875E+03,   951.770E+03,   951.770E+03
C:/temp/Job-44.odb,Step-1,Increment      1: Step Time =    1.000,"P-44-1",          1463,       130.924,       46.5402,            0.,NA,NA,"",   1.09359E+06,   1.08113E+06,   1.08113E+06
C:/temp/Job-44.odb,Step-1,Increment      1: Step Time =    1.000,"P-44-1",          1464,       151.930,       127.351,            0.,NA,NA,"",   1.04003E+06,   1.01809E+06,   1.01809E+06
C:/temp/Job-44.odb,Step-1,Increment      1: Step Time =    1.000,"P-44-1",          1465,       75.6313,       155.166,            0.,NA,NA,"",   1.08044E+06,   1.08854E+06,   1.08854E+06
C:/temp/Job-44.odb,Step-1,Increment      1: Step Time =    1.000,"P-44-1",          1466,       63.6871,       48.0424,            0.,NA,NA,"",   1.09288E+06,   1.09199E+06,   1.09199E+06
C:/temp/Job-44.odb,Step-1,Increment      1: Step Time =    1.000,"P-44-1",          1467,       138.328,       152.539,            0.,NA,NA,"",   1.09473E+06,   1.07476E+06,   1.07476E+06
C:/temp/Job-44.odb,Step-1,Increment      1: Step Time =    1.000,"P-44-1",          1468,       49.4206,       136.284,            0.,NA,NA,"",   1.01550E+06,   1.03410E+06,   1.03410E+06
C:/temp/Job-44.odb,Step-1,Increment      1: Step Time =    1.000,"P-44-1",          1469,       154.474,       62.9035,            0.,NA,NA,"",   1.06157E+06,   1.04071E+06,   1.04071E+06
C:/temp/Job-44.odb,Step-1,Increment      1: Step Time =    1.000,"P-44-1",          1470,       47.9510,       84.7000,            0.,NA,NA,"",   850.846E+03,   896.129E+03,   896.129E+03
C:/temp/Job-44.odb,Step-1,Increment      1: Step Time =    1.000,"P-44-1",          1471,       152.842,       116.916,            0.,NA,NA,"",   962.939E+03,   955.356E+03,   955.356E+03
C:/temp/Job-44.odb,Step-1,Increment      1: Step Time =    1.000,"P-44-1",          1472,       139.197,       133.000,            0.,NA,NA,"",   1.12548E+06,   1.08247E+06,   1.08247E+06
C:/temp/Job-44.odb,Step-1,Increment      1: Step Time =    1.000,"P-44-1",          1473,       59.0132,       133.958,            0.,NA,NA,"",   1.06748E+06,   1.06475E+06,   1.06475E+06
C:/temp/Job-44.odb,Step-1,Increment      1: Step Time =    1.000,"P-44-1",          1474,       143.915,       64.6254,            0.,NA,NA,"",   1.10677E+06,   1.07116E+06,   1.07116E+06
C:/temp/Job-44.odb,Step-1,Increment      1: Step Time =    1.000,"P-44-1",          1475,       51.5428,       128.623,            0.,NA,NA,"",   986.081E+03,   1.00437E+06,   1.00437E+06
C:/temp/Job-44.odb,Step-1,Increment      1: Step Time =    1.000,"P-44-1",          1476,       151.444,       70.0751,            0.,NA,NA,"",   1.05100E+06,   1.02741E+06,   1.02741E+06
C:/temp/Job-44.odb,Step-1,Increment      1: Step Time =    1.000,"P-44-1",          1477,       120.761,       45.0010,            0.,NA,NA,"",   1.07218E+06,   1.07729E+06,   1.07729E+06
C:/temp/Job-44.odb,Step-1,Increment      1: Step Time =    1.000,"P-44-1",          1478,       80.9529,       154.275,            0.,NA,NA,"",   1.07140E+06,   1.08713E+06,   1.08713E+06
C:/temp/Job-44.odb,Step-1,Increment      1: Step Time =    1.000,"P-44-1",          1479,       143.171,       125.405,            0.,NA,NA,"",   1.07258E+06,   1.03403E+06,   1.03403E+06
C:/temp/Job-44.odb,Step-1,Increment      1: Step Time =    1.000,"P-44-1",          1480,       58.9705,       73.8890,            0.,NA,NA,"",   1.02084E+06,   1.01852E+06,   1.01852E+06
C:/temp/Job-44.odb,Step-1,Increment      1: Step Time =    1.000,"P-44-1",          1481,       47.9286,       88.5555,            0.,NA,NA,"",   819.298E+03,   870.452E+03,   870.452E+03
C:/temp/Job-44.odb,Step-1,Increment      1: Step Time =    1.000,"P-44-1",          1482,       153.521,       111.840,            0.,NA,NA,"",   920.469E+03,   922.985E+03,   922.985E+03
C:/temp/Job-44.odb,Step-1,Increment      1: Step Time =    1.000,"P-44-1",          1483,       77.8710,       52.4395,            0.,NA,NA,"",   1.11026E+06,   1.11750E+06,   1.11750E+06
C:/temp/Job-44.odb,Step-1,Increment      1: Step Time =    1.000,"P-44-1",          1484,       121.525,       145.904,            0.,NA,NA,"",   1.12128E+06,   1.11819E+06,   1.11819E+06
C:/temp/Job-44.odb,Step-1,Increment      1: Step Time =    1.000,"P-44-1",          1485,       150.766,       73.4680,            0.,NA,NA,"",   1.03715E+06,   1.01437E+06,   1.01437E+06
C:/temp/Job-44.odb,Step-1,Increment      1: Step Time =    1.000,"P-44-1",          1486,       49.2355,       122.856,            0.,NA,NA,"",   929.924E+03,   960.214E+03,   960.214E+03
C:/temp/Job-44.odb,Step-1,Increment      1: Step Time =    1.000,"P-44-1",          1487,       137.966,       37.0518,            0.,NA,NA,"",   1.05972E+06,   1.04939E+06,   1.04939E+06
C:/temp/Job-44.odb,Step-1,Increment      1: Step Time =    1.000,"P-44-1",          1488,       38.6313,       58.9567,            0.,NA,NA,"",   977.222E+03,   1.01637E+06,   1.01637E+06
C:/temp/Job-44.odb,Step-1,Increment      1: Step Time =    1.000,"P-44-1",          1489,       161.464,       137.975,            0.,NA,NA,"",   1.03984E+06,   1.02749E+06,   1.02749E+06
C:/temp/Job-44.odb,Step-1,Increment      1: Step Time =    1.000,"P-44-1",          1490,       60.4909,       162.256,            0.,NA,NA,"",   1.07163E+06,   1.07409E+06,   1.07409E+06
C:/temp/Job-44.odb,Step-1,Increment      1: Step Time =    1.000,"P-44-1",          1491,       49.8985,       35.2765,            0.,NA,NA,"",   1.06197E+06,   1.07041E+06,   1.07041E+06
C:/temp/Job-44.odb,Step-1,Increment      1: Step Time =    1.000,"P-44-1",          1492,       149.578,       163.560,            0.,NA,NA,"",   1.05003E+06,   1.03829E+06,   1.03829E+06
C:/temp/Job-44.odb,Step-1,Increment      1: Step Time =    1.000,"P-44-1",          1493,       162.227,       50.5017,            0.,NA,NA,"",   1.04567E+06,   1.03413E+06,   1.03413E+06
C:/temp/Job-44.odb,Step-1,Increment      1: Step Time =    1.000,"P-44-1",          1494,       35.4728,       151.899,            0.,NA,NA,"",   1.00236E+06,   1.04101E+06,   1.04101E+06
C:/temp/Job-44.odb,Step-1,Increment      1: Step Time =    1.000,"P-44-1",          1495,       83.4456,       45.0198,            0.,NA,NA,"",   1.06175E+06,   1.08108E+06,   1.08108E+06
C:/temp/Job-44.odb,Step-1,Increment      1: Step Time =    1.000,"P-44-1",          1496,       116.542,       155.204,            0.,NA,NA,"",   1.05919E+06,   1.07303E+06,   1.07303E+06
C:/temp/Job-44.odb,Step-1,Increment      1: Step Time =    1.000,"P-44-1",          1497,       149.691,       169.175,            0.,NA,NA,"",   1.03771E+06,   1.02888E+06,   1.02888E+06
C:/temp/Job-44.odb,Step-1,Increment      1: Step Time =    1.000,"P-44-1",          1498,       47.8554,       32.3001,            0.,NA,NA,"",   1.05971E+06,   1.06879E+06,   1.06879E+06
C:/temp/Job-44.odb,Step-1,Increment      1: Step Time =    1.000,"P-44-1",          1499,       166.625,       50.4937,            0.,NA,NA,"",   1.03491E+06,   1.02705E+06,   1.02705E+06
C:/temp/Job-44.odb,Step-1,Increment      1: Step Time =    1.000,"P-44-1",          1500,       156.394,       99.6961,            0.,NA,NA,"",   885.575E+03,   899.583E+03,   899.583E+03
C:/temp/Job-44.odb,Step-1,Increment      1: Step Time =    1.000,"P-44-1",          1501,       44.7533,       99.6613,            0.,NA,NA,"",   781.627E+03,   844.459E+03,   844.459E+03
C:/temp/Job-44.odb,Step-1,Increment      1: Step Time =    1.000,"P-44-1",          1502,       130.552,       52.2871,            0.,NA,NA,"",   1.11926E+06,   1.10028E+06,   1.10028E+06
C:/temp/Job-44.odb,Step-1,Increment      1: Step Time =    1.000,"P-44-1",          1503,       66.9922,       146.465,            0.,NA,NA,"",   1.11008E+06,   1.10624E+06,   1.10624E+06
C:/temp/Job-44.odb,Step-1,Increment      1: Step Time =    1.000,"P-44-1",          1504,       149.058,       85.0884,            0.,NA,NA,"",   943.737E+03,   934.939E+03,   934.939E+03
C:/temp/Job-44.odb,Step-1,Increment      1: Step Time =    1.000,"P-44-1",          1505,       48.2001,       116.359,            0.,NA,NA,"",   862.667E+03,   905.731E+03,   905.731E+03
C:/temp/Job-44.odb,Step-1,Increment      1: Step Time =    1.000,"P-44-1",          1506,       121.140,       150.877,            0.,NA,NA,"",   1.09309E+06,   1.09521E+06,   1.09521E+06
C:/temp/Job-44.odb,Step-1,Increment      1: Step Time =    1.000,"P-44-1",          1507,       78.5470,       48.1692,            0.,NA,NA,"",   1.08917E+06,   1.09973E+06,   1.09973E+06
C:/temp/Job-44.odb,Step-1,Increment      1: Step Time =    1.000,"P-44-1",          1508,       154.520,       96.2881,            0.,NA,NA,"",   881.436E+03,   893.838E+03,   893.838E+03
C:/temp/Job-44.odb,Step-1,Increment      1: Step Time =    1.000,"P-44-1",          1509,       44.5884,       103.275,            0.,NA,NA,"",   784.103E+03,   846.694E+03,   846.694E+03
C:/temp/Job-44.odb,Step-1,Increment      1: Step Time =    1.000,"P-44-1",          1510,       165.941,       129.861,            0.,NA,NA,"",   1.00950E+06,   1.00618E+06,   1.00618E+06
C:/temp/Job-44.odb,Step-1,Increment      1: Step Time =    1.000,"P-44-1",          1511,       66.2362,       168.056,            0.,NA,NA,"",   1.05641E+06,   1.05861E+06,   1.05861E+06
C:/temp/Job-44.odb,Step-1,Increment      1: Step Time =    1.000,"P-44-1",          1512,       131.168,       33.2953,            0.,NA,NA,"",   1.04591E+06,   1.04152E+06,   1.04152E+06
C:/temp/Job-44.odb,Step-1,Increment      1: Step Time =    1.000,"P-44-1",          1513,       32.9663,       67.5964,            0.,NA,NA,"",   911.224E+03,   969.001E+03,   969.001E+03
C:/temp/Job-44.odb,Step-1,Increment      1: Step Time =    1.000,"P-44-1",          1514,       46.2406,       67.9571,            0.,NA,NA,"",   972.246E+03,   1.00150E+06,   1.00150E+06
C:/temp/Job-44.odb,Step-1,Increment      1: Step Time =    1.000,"P-44-1",          1515,       135.879,       50.1335,            0.,NA,NA,"",   1.10586E+06,   1.08430E+06,   1.08430E+06
C:/temp/Job-44.odb,Step-1,Increment      1: Step Time =    1.000,"P-44-1",          1516,       44.1765,       80.1966,            0.,NA,NA,"",   879.627E+03,   926.688E+03,   926.688E+03
C:/temp/Job-44.odb,Step-1,Increment      1: Step Time =    1.000,"P-44-1",          1517,       147.999,       131.729,            0.,NA,NA,"",   1.07370E+06,   1.04418E+06,   1.04418E+06
C:/temp/Job-44.odb,Step-1,Increment      1: Step Time =    1.000,"P-44-1",          1518,       68.8441,       151.335,            0.,NA,NA,"",   1.09954E+06,   1.09936E+06,   1.09936E+06
C:/temp/Job-44.odb,Step-1,Increment      1: Step Time =    1.000,"P-44-1",          1519,       156.759,       123.122,            0.,NA,NA,"",   1.00163E+06,   991.226E+03,   991.226E+03
C:/temp/Job-44.odb,Step-1,Increment      1: Step Time =    1.000,"P-44-1",          1520,       66.7358,       45.4173,            0.,NA,NA,"",   1.09085E+06,   1.09080E+06,   1.09080E+06
C:/temp/Job-44.odb,Step-1,Increment      1: Step Time =    1.000,"P-44-1",          1521,       57.2829,       48.1555,            0.,NA,NA,"",   1.07760E+06,   1.08104E+06,   1.08104E+06
C:/temp/Job-44.odb,Step-1,Increment      1: Step Time =    1.000,"P-44-1",          1522,       132.343,       154.260,            0.,NA,NA,"",   1.09328E+06,   1.07904E+06,   1.07904E+06
C:/temp/Job-44.odb,Step-1,Increment      1: Step Time =    1.000,"P-44-1",          1523,       145.080,       146.021,            0.,NA,NA,"",   1.09493E+06,   1.06946E+06,   1.06946E+06
C:/temp/Job-44.odb,Step-1,Increment      1: Step Time =    1.000,"P-44-1",          1524,       49.8176,       144.843,            0.,NA,NA,"",   1.04212E+06,   1.05725E+06,   1.05725E+06
C:/temp/Job-44.odb,Step-1,Increment      1: Step Time =    1.000,"P-44-1",          1525,       46.4586,       129.596,            0.,NA,NA,"",   961.971E+03,   992.582E+03,   992.582E+03
C:/temp/Job-44.odb,Step-1,Increment      1: Step Time =    1.000,"P-44-1",          1526,       151.967,       57.9154,            0.,NA,NA,"",   1.07618E+06,   1.05331E+06,   1.05331E+06
C:/temp/Job-44.odb,Step-1,Increment      1: Step Time =    1.000,"P-44-1",          1527,       155.897,       67.4319,            0.,NA,NA,"",   1.04472E+06,   1.02675E+06,   1.02675E+06
C:/temp/Job-44.odb,Step-1,Increment      1: Step Time =    1.000,"P-44-1",          1528,       144.344,       130.348,            0.,NA,NA,"",   1.08879E+06,   1.05285E+06,   1.05285E+06
C:/temp/Job-44.odb,Step-1,Increment      1: Step Time =    1.000,"P-44-1",          1529,       142.605,       40.5239,            0.,NA,NA,"",   1.06824E+06,   1.05363E+06,   1.05363E+06
C:/temp/Job-44.odb,Step-1,Increment      1: Step Time =    1.000,"P-44-1",          1530,       39.5586,       54.9831,            0.,NA,NA,"",   997.264E+03,   1.03154E+06,   1.03154E+06
C:/temp/Job-44.odb,Step-1,Increment      1: Step Time =    1.000,"P-44-1",          1531,       156.834,       141.182,            0.,NA,NA,"",   1.05799E+06,   1.04025E+06,   1.04025E+06
C:/temp/Job-44.odb,Step-1,Increment      1: Step Time =    1.000,"P-44-1",          1532,       58.3929,       159.084,            0.,NA,NA,"",   1.07515E+06,   1.07817E+06,   1.07817E+06
C:/temp/Job-44.odb,Step-1,Increment      1: Step Time =    1.000,"P-44-1",          1533,       46.4261,       41.4788,            0.,NA,NA,"",   1.05234E+06,   1.06784E+06,   1.06784E+06
C:/temp/Job-44.odb,Step-1,Increment      1: Step Time =    1.000,"P-44-1",          1534,       153.158,       159.759,            0.,NA,NA,"",   1.05275E+06,   1.03991E+06,   1.03991E+06
C:/temp/Job-44.odb,Step-1,Increment      1: Step Time =    1.000,"P-44-1",          1535,       156.858,       45.9716,            0.,NA,NA,"",   1.05448E+06,   1.04074E+06,   1.04074E+06
C:/temp/Job-44.odb,Step-1,Increment      1: Step Time =    1.000,"P-44-1",          1536,       40.2284,       153.764,            0.,NA,NA,"",   1.02486E+06,   1.05320E+06,   1.05320E+06
C:/temp/Job-44.odb,Step-1,Increment      1: Step Time =    1.000,"P-44-1",          1537,       57.8871,       69.6489,            0.,NA,NA,"",   1.04211E+06,   1.04108E+06,   1.04108E+06
C:/temp/Job-44.odb,Step-1,Increment      1: Step Time =    1.000,"P-44-1",          1538,       134.143,       56.0230,            0.,NA,NA,"",   1.13025E+06,   1.10226E+06,   1.10226E+06
C:/temp/Job-44.odb,Step-1,Increment      1: Step Time =    1.000,"P-44-1",          1539,       64.9203,       142.098,            0.,NA,NA,"",   1.11252E+06,   1.10505E+06,   1.10505E+06
C:/temp/Job-44.odb,Step-1,Increment      1: Step Time =    1.000,"P-44-1",          1540,       149.841,       90.1304,            0.,NA,NA,"",   898.698E+03,   900.747E+03,   900.747E+03
C:/temp/Job-44.odb,Step-1,Increment      1: Step Time =    1.000,"P-44-1",          1541,       154.682,       78.0619,            0.,NA,NA,"",   997.170E+03,   985.524E+03,   985.524E+03
C:/temp/Job-44.odb,Step-1,Increment      1: Step Time =    1.000,"P-44-1",          1542,       43.7696,       119.987,            0.,NA,NA,"",   881.341E+03,   928.815E+03,   928.815E+03
C:/temp/Job-44.odb,Step-1,Increment      1: Step Time =    1.000,"P-44-1",          1543,       51.7804,       113.179,            0.,NA,NA,"",   835.743E+03,   876.923E+03,   876.923E+03
C:/temp/Job-44.odb,Step-1,Increment      1: Step Time =    1.000,"P-44-1",          1544,       58.2399,       140.425,            0.,NA,NA,"",   1.07722E+06,   1.07745E+06,   1.07745E+06
C:/temp/Job-44.odb,Step-1,Increment      1: Step Time =    1.000,"P-44-1",          1545,       141.776,       59.2788,            0.,NA,NA,"",   1.11579E+06,   1.08344E+06,   1.08344E+06
C:/temp/Job-44.odb,Step-1,Increment      1: Step Time =    1.000,"P-44-1",          1546,       136.769,       142.734,            0.,NA,NA,"",   1.12751E+06,   1.09584E+06,   1.09584E+06
C:/temp/Job-44.odb,Step-1,Increment      1: Step Time =    1.000,"P-44-1",          1547,       144.467,       113.491,            0.,NA,NA,"",   929.795E+03,   915.340E+03,   915.340E+03
C:/temp/Job-44.odb,Step-1,Increment      1: Step Time =    1.000,"P-44-1",          1548,       55.9987,       87.5695,            0.,NA,NA,"",   834.316E+03,   866.819E+03,   866.819E+03
C:/temp/Job-44.odb,Step-1,Increment      1: Step Time =    1.000,"P-44-1",          1549,       138.465,       32.9733,            0.,NA,NA,"",   1.04709E+06,   1.03898E+06,   1.03898E+06
C:/temp/Job-44.odb,Step-1,Increment      1: Step Time =    1.000,"P-44-1",          1550,       59.9805,       168.034,            0.,NA,NA,"",   1.06043E+06,   1.06271E+06,   1.06271E+06
C:/temp/Job-44.odb,Step-1,Increment      1: Step Time =    1.000,"P-44-1",          1551,       166.087,       138.797,            0.,NA,NA,"",   1.02812E+06,   1.02105E+06,   1.02105E+06
C:/temp/Job-44.odb,Step-1,Increment      1: Step Time =    1.000,"P-44-1",          1552,       141.367,       142.303,            0.,NA,NA,"",   1.11272E+06,   1.08174E+06,   1.08174E+06
C:/temp/Job-44.odb,Step-1,Increment      1: Step Time =    1.000,"P-44-1",          1553,       135.200,       146.374,            0.,NA,NA,"",    1.1215E+06,   1.09497E+06,   1.09497E+06
C:/temp/Job-44.odb,Step-1,Increment      1: Step Time =    1.000,"P-44-1",          1554,       45.8314,       64.0720,            0.,NA,NA,"",   992.216E+03,   1.01869E+06,   1.01869E+06
C:/temp/Job-44.odb,Step-1,Increment      1: Step Time =    1.000,"P-44-1",          1555,       135.800,       46.5346,            0.,NA,NA,"",   1.09367E+06,   1.07592E+06,   1.07592E+06
C:/temp/Job-44.odb,Step-1,Increment      1: Step Time =    1.000,"P-44-1",          1556,       63.8162,       152.173,            0.,NA,NA,"",   1.09151E+06,   1.09120E+06,   1.09120E+06
C:/temp/Job-44.odb,Step-1,Increment      1: Step Time =    1.000,"P-44-1",          1557,       152.018,       136.639,            0.,NA,NA,"",   1.06950E+06,   1.04567E+06,   1.04567E+06
C:/temp/Job-44.odb,Step-1,Increment      1: Step Time =    1.000,"P-44-1",          1558,       142.749,       36.3904,            0.,NA,NA,"",   1.05698E+06,   1.04531E+06,   1.04531E+06
C:/temp/Job-44.odb,Step-1,Increment      1: Step Time =    1.000,"P-44-1",          1559,       43.8684,       60.1763,            0.,NA,NA,"",   997.902E+03,   1.02657E+06,   1.02657E+06
C:/temp/Job-44.odb,Step-1,Increment      1: Step Time =    1.000,"P-44-1",          1560,       35.2811,       53.5173,            0.,NA,NA,"",   981.914E+03,   1.02472E+06,   1.02472E+06
C:/temp/Job-44.odb,Step-1,Increment      1: Step Time =    1.000,"P-44-1",          1561,       152.327,       140.808,            0.,NA,NA,"",   1.07356E+06,   1.05079E+06,   1.05079E+06
C:/temp/Job-44.odb,Step-1,Increment      1: Step Time =    1.000,"P-44-1",          1562,       161.266,       142.077,            0.,NA,NA,"",   1.04523E+06,   1.03228E+06,   1.03228E+06
C:/temp/Job-44.odb,Step-1,Increment      1: Step Time =    1.000,"P-44-1",          1563,       60.2146,       153.459,            0.,NA,NA,"",   1.08333E+06,   1.08471E+06,   1.08471E+06
C:/temp/Job-44.odb,Step-1,Increment      1: Step Time =    1.000,"P-44-1",          1564,       56.8232,       165.323,            0.,NA,NA,"",   1.06569E+06,   1.06925E+06,   1.06925E+06
C:/temp/Job-44.odb,Step-1,Increment      1: Step Time =    1.000,"P-44-1",          1565,       47.5471,       46.2738,            0.,NA,NA,"",   1.04972E+06,   1.06530E+06,   1.06530E+06
C:/temp/Job-44.odb,Step-1,Increment      1: Step Time =    1.000,"P-44-1",          1566,       150.492,       149.793,            0.,NA,NA,"",   1.07372E+06,   1.05418E+06,   1.05418E+06
C:/temp/Job-44.odb,Step-1,Increment      1: Step Time =    1.000,"P-44-1",          1567,       151.204,       48.1173,            0.,NA,NA,"",   1.06988E+06,   1.05191E+06,   1.05191E+06
C:/temp/Job-44.odb,Step-1,Increment      1: Step Time =    1.000,"P-44-1",          1568,       43.8846,       152.158,            0.,NA,NA,"",   1.03437E+06,   1.05703E+06,   1.05703E+06
C:/temp/Job-44.odb,Step-1,Increment      1: Step Time =    1.000,"P-44-1",          1569,       130.903,       60.7770,            0.,NA,NA,"",   1.15627E+06,   1.12337E+06,   1.12337E+06
C:/temp/Job-44.odb,Step-1,Increment      1: Step Time =    1.000,"P-44-1",          1570,       68.4215,       137.187,            0.,NA,NA,"",   1.13836E+06,   1.12245E+06,   1.12245E+06
C:/temp/Job-44.odb,Step-1,Increment      1: Step Time =    1.000,"P-44-1",          1571,       146.906,       87.7666,            0.,NA,NA,"",   911.656E+03,   906.253E+03,   906.253E+03
C:/temp/Job-44.odb,Step-1,Increment      1: Step Time =    1.000,"P-44-1",          1572,       152.583,       87.9134,            0.,NA,NA,"",   923.120E+03,   924.091E+03,   924.091E+03
C:/temp/Job-44.odb,Step-1,Increment      1: Step Time =    1.000,"P-44-1",          1573,       54.5591,       110.000,            0.,NA,NA,"",   795.346E+03,   837.549E+03,   837.549E+03
C:/temp/Job-44.odb,Step-1,Increment      1: Step Time =    1.000,"P-44-1",          1574,       45.2629,       112.633,            0.,NA,NA,"",   827.209E+03,   881.127E+03,   881.127E+03
C:/temp/Job-44.odb,Step-1,Increment      1: Step Time =    1.000,"P-44-1",          1575,       61.8158,       68.6898,            0.,NA,NA,"",   1.08472E+06,   1.07233E+06,   1.07233E+06
C:/temp/Job-44.odb,Step-1,Increment      1: Step Time =    1.000,"P-44-1",          1576,       139.600,       54.9970,            0.,NA,NA,"",   1.11467E+06,   1.08679E+06,   1.08679E+06
C:/temp/Job-44.odb,Step-1,Increment      1: Step Time =    1.000,"P-44-1",          1577,       60.5149,       144.232,            0.,NA,NA,"",   1.09168E+06,   1.08970E+06,   1.08970E+06
C:/temp/Job-44.odb,Step-1,Increment      1: Step Time =    1.000,"P-44-1",          1578,       133.812,       150.256,            0.,NA,NA,"",   1.10910E+06,   1.08868E+06,   1.08868E+06
C:/temp/Job-44.odb,Step-1,Increment      1: Step Time =    1.000,"P-44-1",          1579,       69.0863,       50.0579,            0.,NA,NA,"",   1.10525E+06,   1.10364E+06,   1.10364E+06
C:/temp/Job-44.odb,Step-1,Increment      1: Step Time =    1.000,"P-44-1",          1580,       125.757,       46.0780,            0.,NA,NA,"",   1.08726E+06,   1.08230E+06,   1.08230E+06
C:/temp/Job-44.odb,Step-1,Increment      1: Step Time =    1.000,"P-44-1",          1581,       54.7061,       70.6099,            0.,NA,NA,"",   1.01147E+06,   1.01996E+06,   1.01996E+06
C:/temp/Job-44.odb,Step-1,Increment      1: Step Time =    1.000,"P-44-1",          1582,       152.290,       93.0663,            0.,NA,NA,"",   886.592E+03,   894.982E+03,   894.982E+03
C:/temp/Job-44.odb,Step-1,Increment      1: Step Time =    1.000,"P-44-1",          1583,       48.8888,       110.310,            0.,NA,NA,"",   808.149E+03,   859.460E+03,   859.460E+03
C:/temp/Job-44.odb,Step-1,Increment      1: Step Time =    1.000,"P-44-1",          1584,       128.364,       152.293,            0.,NA,NA,"",   1.09943E+06,   1.08803E+06,   1.08803E+06
C:/temp/Job-44.odb,Step-1,Increment      1: Step Time =    1.000,"P-44-1",          1585,       70.2112,       46.2727,            0.,NA,NA,"",   1.09309E+06,   1.09441E+06,   1.09441E+06
C:/temp/Job-44.odb,Step-1,Increment      1: Step Time =    1.000,"P-44-1",          1586,       55.8477,       65.9069,            0.,NA,NA,"",   1.04808E+06,   1.05136E+06,   1.05136E+06
C:/temp/Job-44.odb,Step-1,Increment      1: Step Time =    1.000,"P-44-1",          1587,       142.182,       137.703,            0.,NA,NA,"",   1.11427E+06,   1.07905E+06,   1.07905E+06
C:/temp/Job-44.odb,Step-1,Increment      1: Step Time =    1.000,"P-44-1",          1588,       143.806,       54.2110,            0.,NA,NA,"",   1.10069E+06,   1.07458E+06,   1.07458E+06
C:/temp/Job-44.odb,Step-1,Increment      1: Step Time =    1.000,"P-44-1",          1589,       56.2236,       146.440,            0.,NA,NA,"",   1.07290E+06,   1.07726E+06,   1.07726E+06
C:/temp/Job-44.odb,Step-1,Increment      1: Step Time =    1.000,"P-44-1",          1590,       141.593,       44.1661,            0.,NA,NA,"",   1.08011E+06,   1.06289E+06,   1.06289E+06
C:/temp/Job-44.odb,Step-1,Increment      1: Step Time =    1.000,"P-44-1",          1591,       44.0690,       55.4657,            0.,NA,NA,"",   1.01519E+06,   1.04107E+06,   1.04107E+06
C:/temp/Job-44.odb,Step-1,Increment      1: Step Time =    1.000,"P-44-1",          1592,       152.907,       144.777,            0.,NA,NA,"",   1.07149E+06,   1.05094E+06,   1.05094E+06
C:/temp/Job-44.odb,Step-1,Increment      1: Step Time =    1.000,"P-44-1",          1593,       56.2380,       155.801,            0.,NA,NA,"",   1.07404E+06,   1.07858E+06,   1.07858E+06
C:/temp/Job-44.odb,Step-1,Increment      1: Step Time =    1.000,"P-44-1",          1594,       43.0062,       47.1169,            0.,NA,NA,"",   1.03263E+06,   1.05623E+06,   1.05623E+06
C:/temp/Job-44.odb,Step-1,Increment      1: Step Time =    1.000,"P-44-1",          1595,       52.2887,       46.0239,            0.,NA,NA,"",   1.06467E+06,   1.07346E+06,   1.07346E+06
C:/temp/Job-44.odb,Step-1,Increment      1: Step Time =    1.000,"P-44-1",          1596,       145.625,       151.228,            0.,NA,NA,"",   1.08402E+06,   1.06312E+06,   1.06312E+06
C:/temp/Job-44.odb,Step-1,Increment      1: Step Time =    1.000,"P-44-1",          1597,       156.642,       151.424,            0.,NA,NA,"",   1.05750E+06,   1.04243E+06,   1.04243E+06
C:/temp/Job-44.odb,Step-1,Increment      1: Step Time =    1.000,"P-44-1",          1598,       151.544,       45.0002,            0.,NA,NA,"",   1.06410E+06,   1.04807E+06,   1.04807E+06
C:/temp/Job-44.odb,Step-1,Increment      1: Step Time =    1.000,"P-44-1",          1599,       150.600,       52.6158,            0.,NA,NA,"",   1.07937E+06,   1.05777E+06,   1.05777E+06
C:/temp/Job-44.odb,Step-1,Increment      1: Step Time =    1.000,"P-44-1",          1600,       45.6606,       146.484,            0.,NA,NA,"",   1.02713E+06,   1.04961E+06,   1.04961E+06
C:/temp/Job-44.odb,Step-1,Increment      1: Step Time =    1.000,"P-44-1",          1601,       45.9435,       156.287,            0.,NA,NA,"",   1.04870E+06,   1.06561E+06,   1.06561E+06
C:/temp/Job-44.odb,Step-1,Increment      1: Step Time =    1.000,"P-44-1",          1602,       143.121,       86.3826,            0.,NA,NA,"",   930.919E+03,   914.399E+03,   914.399E+03
C:/temp/Job-44.odb,Step-1,Increment      1: Step Time =    1.000,"P-44-1",          1603,       58.2463,       112.206,            0.,NA,NA,"",   828.321E+03,   855.517E+03,   855.517E+03
C:/temp/Job-44.odb,Step-1,Increment      1: Step Time =    1.000,"P-44-1",          1604,       144.236,       141.686,            0.,NA,NA,"",   1.10326E+06,   1.07356E+06,   1.07356E+06
C:/temp/Job-44.odb,Step-1,Increment      1: Step Time =    1.000,"P-44-1",          1605,       58.2857,       150.035,            0.,NA,NA,"",   1.08102E+06,   1.08332E+06,   1.08332E+06
C:/temp/Job-44.odb,Step-1,Increment      1: Step Time =    1.000,"P-44-1",          1606,       48.7745,       59.2910,            0.,NA,NA,"",   1.02751E+06,   1.04505E+06,   1.04505E+06
C:/temp/Job-44.odb,Step-1,Increment      1: Step Time =    1.000,"P-44-1",          1607,       147.942,       140.973,            0.,NA,NA,"",   1.08968E+06,   1.06264E+06,   1.06264E+06
C:/temp/Job-44.odb,Step-1,Increment      1: Step Time =    1.000,"P-44-1",          1608,       141.657,       50.3021,            0.,NA,NA,"",   1.09472E+06,   1.07269E+06,   1.07269E+06
C:/temp/Job-44.odb,Step-1,Increment      1: Step Time =    1.000,"P-44-1",          1609,       49.9920,       154.339,            0.,NA,NA,"",   1.05782E+06,   1.06972E+06,   1.06972E+06
C:/temp/Job-44.odb,Step-1,Increment      1: Step Time =    1.000,"P-44-1",          1610,       154.124,       148.399,            0.,NA,NA,"",   1.06563E+06,   1.04771E+06,   1.04771E+06
C:/temp/Job-44.odb,Step-1,Increment      1: Step Time =    1.000,"P-44-1",          1611,       146.005,       46.0422,            0.,NA,NA,"",   1.07736E+06,   1.05890E+06,   1.05890E+06
C:/temp/Job-44.odb,Step-1,Increment      1: Step Time =    1.000,"P-44-1",          1612,       148.492,       103.013,            0.,NA,NA,"",   834.203E+03,   847.649E+03,   847.649E+03
C:/temp/Job-44.odb,Step-1,Increment      1: Step Time =    1.000,"P-44-1",          1613,       48.7897,       99.8005,            0.,NA,NA,"",   767.162E+03,   825.827E+03,   825.827E+03
C:/temp/Job-44.odb,Step-1,Increment      1: Step Time =    1.000,"P-44-1",          1614,       159.216,       148.879,            0.,NA,NA,"",   1.05275E+06,   1.03867E+06,   1.03867E+06
C:/temp/Job-44.odb,Step-1,Increment      1: Step Time =    1.000,"P-44-1",          1615,       39.1873,       48.4020,            0.,NA,NA,"",   1.01570E+06,   1.04709E+06,   1.04709E+06
C:/temp/Job-44.odb,Step-1,Increment      1: Step Time =    1.000,"P-44-1",          1616,       47.9275,       160.380,            0.,NA,NA,"",   1.05771E+06,   1.06993E+06,   1.06993E+06
C:/temp/Job-44.odb,Step-1,Increment      1: Step Time =    1.000,"P-44-1",          1617,       152.196,       40.4225,            0.,NA,NA,"",   1.05543E+06,   1.04212E+06,   1.04212E+06
C:/temp/Job-44.odb,Step-1,Increment      1: Step Time =    1.000,"P-44-1",          1618,       145.471,       89.7512,            0.,NA,NA,"",   888.489E+03,   885.787E+03,   885.787E+03
C:/temp/Job-44.odb,Step-1,Increment      1: Step Time =    1.000,"P-44-1",          1619,       56.7298,       106.745,            0.,NA,NA,"",   751.778E+03,   797.013E+03,   797.013E+03
C:/temp/Job-44.odb,Step-1,Increment      1: Step Time =    1.000,"P-44-1",          1620,       121.172,       155.753,            0.,NA,NA,"",   1.07014E+06,   1.07427E+06,   1.07427E+06
C:/temp/Job-44.odb,Step-1,Increment      1: Step Time =    1.000,"P-44-1",          1621,       79.3385,       43.8441,            0.,NA,NA,"",   1.07054E+06,   1.08267E+06,   1.08267E+06
C:/temp/Job-44.odb,Step-1,Increment      1: Step Time =    1.000,"P-44-1",          1622,       129.616,       148.202,            0.,NA,NA,"",   1.11980E+06,   1.10158E+06,   1.10158E+06
C:/temp/Job-44.odb,Step-1,Increment      1: Step Time =    1.000,"P-44-1",          1623,       68.5639,       54.0127,            0.,NA,NA,"",   1.11636E+06,   1.11108E+06,   1.11108E+06
C:/temp/Job-44.odb,Step-1,Increment      1: Step Time =    1.000,"P-44-1",          1624,       36.7679,       155.125,            0.,NA,NA,"",   1.01516E+06,   1.04956E+06,   1.04956E+06
C:/temp/Job-44.odb,Step-1,Increment      1: Step Time =    1.000,"P-44-1",          1625,       162.281,       45.4120,            0.,NA,NA,"",   1.04225E+06,   1.03205E+06,   1.03205E+06
C:/temp/Job-44.odb,Step-1,Increment      1: Step Time =    1.000,"P-44-1",          1626,       156.539,       162.563,            0.,NA,NA,"",   1.04258E+06,   1.03227E+06,   1.03227E+06
C:/temp/Job-44.odb,Step-1,Increment      1: Step Time =    1.000,"P-44-1",          1627,       44.7591,       36.8785,            0.,NA,NA,"",   1.05423E+06,   1.06917E+06,   1.06917E+06
C:/temp/Job-44.odb,Step-1,Increment      1: Step Time =    1.000,"P-44-1",          1628,       57.3659,       60.1494,            0.,NA,NA,"",   1.07312E+06,   1.07378E+06,   1.07378E+06
C:/temp/Job-44.odb,Step-1,Increment      1: Step Time =    1.000,"P-44-1",          1629,       59.3375,       118.159,            0.,NA,NA,"",   939.400E+03,   945.454E+03,   945.454E+03
C:/temp/Job-44.odb,Step-1,Increment      1: Step Time =    1.000,"P-44-1",          1630,       142.403,       80.9715,            0.,NA,NA,"",   1.01011E+06,   978.262E+03,   978.262E+03
C:/temp/Job-44.odb,Step-1,Increment      1: Step Time =    1.000,"P-44-1",          1631,       36.6749,       50.4859,            0.,NA,NA,"",   998.994E+03,   1.03679E+06,   1.03679E+06
C:/temp/Job-44.odb,Step-1,Increment      1: Step Time =    1.000,"P-44-1",          1632,       147.585,       35.8189,            0.,NA,NA,"",   1.05084E+06,   1.03945E+06,   1.03945E+06
C:/temp/Job-44.odb,Step-1,Increment      1: Step Time =    1.000,"P-44-1",          1633,       50.1062,       164.461,            0.,NA,NA,"",   1.06149E+06,   1.06994E+06,   1.06994E+06
C:/temp/Job-44.odb,Step-1,Increment      1: Step Time =    1.000,"P-44-1",          1634,       160.614,       145.674,            0.,NA,NA,"",   1.04899E+06,   1.03557E+06,   1.03557E+06
C:/temp/Job-44.odb,Step-1,Increment      1: Step Time =    1.000,"P-44-1",          1635,       53.9276,       142.867,            0.,NA,NA,"",   1.05812E+06,   1.06605E+06,   1.06605E+06
C:/temp/Job-44.odb,Step-1,Increment      1: Step Time =    1.000,"P-44-1",          1636,       147.907,       56.2861,            0.,NA,NA,"",   1.08953E+06,   1.06400E+06,   1.06400E+06
C:/temp/Job-44.odb,Step-1,Increment      1: Step Time =    1.000,"P-44-1",          1637,       54.2096,       55.5499,            0.,NA,NA,"",   1.06148E+06,   1.06871E+06,   1.06871E+06
C:/temp/Job-44.odb,Step-1,Increment      1: Step Time =    1.000,"P-44-1",          1638,       60.8562,       58.6953,            0.,NA,NA,"",   1.09329E+06,   1.08920E+06,   1.08920E+06
C:/temp/Job-44.odb,Step-1,Increment      1: Step Time =    1.000,"P-44-1",          1639,       58.9693,       53.8671,            0.,NA,NA,"",   1.08495E+06,   1.08514E+06,   1.08514E+06
C:/temp/Job-44.odb,Step-1,Increment      1: Step Time =    1.000,"P-44-1",          1640,       89.5020,       19.7558,            0.,NA,NA,"",   989.327E+03,   996.118E+03,   996.118E+03
C:/temp/Job-44.odb,Step-1,Increment      1: Step Time =    1.000,"P-44-1",          1641,       19.9988,       111.347,            0.,NA,NA,"",   800.082E+03,   886.352E+03,   886.352E+03
C:/temp/Job-44.odb,Step-1,Increment      1: Step Time =    1.000,"P-44-1",          1642,       180.336,       88.9536,            0.,NA,NA,"",   961.336E+03,   983.762E+03,   983.762E+03
C:/temp/Job-44.odb,Step-1,Increment      1: Step Time =    1.000,"P-44-1",          1643,       109.965,       179.882,            0.,NA,NA,"",   986.810E+03,   993.088E+03,   993.088E+03
C:/temp/Job-44.odb,Step-1,Increment      1: Step Time =    1.000,"P-44-1",          1644,       152.545,       66.4328,            0.,NA,NA,"",   1.05945E+06,   1.03651E+06,   1.03651E+06
C:/temp/Job-44.odb,Step-1,Increment      1: Step Time =    1.000,"P-44-1",          1645,       49.3104,       131.598,            0.,NA,NA,"",   988.362E+03,   1.01097E+06,   1.01097E+06
C:/temp/Job-44.odb,Step-1,Increment      1: Step Time =    1.000,"P-44-1",          1646,       25.7226,       9.61344,            0.,NA,NA,"",   1.09233E+06,   1.09966E+06,   1.09966E+06
C:/temp/Job-44.odb,Step-1,Increment      1: Step Time =    1.000,"P-44-1",          1647,       10.3928,       173.462,            0.,NA,NA,"",   998.643E+03,   1.08003E+06,   1.08003E+06
C:/temp/Job-44.odb,Step-1,Increment      1: Step Time =    1.000,"P-44-1",          1648,       189.815,       26.0814,            0.,NA,NA,"",   1.00123E+06,   1.00181E+06,   1.00181E+06
C:/temp/Job-44.odb,Step-1,Increment      1: Step Time =    1.000,"P-44-1",          1649,       174.280,       190.010,            0.,NA,NA,"",   1.00105E+06,   1.00067E+06,   1.00067E+06
C:/temp/Job-44.odb,Step-1,Increment      1: Step Time =    1.000,"P-44-1",          1650,       66.3545,       116.562,            0.,NA,NA,"",   980.976E+03,   956.221E+03,   956.221E+03
C:/temp/Job-44.odb,Step-1,Increment      1: Step Time =    1.000,"P-44-1",          1651,       155.866,       90.8958,            0.,NA,NA,"",   912.677E+03,   920.122E+03,   920.122E+03
C:/temp/Job-44.odb,Step-1,Increment      1: Step Time =    1.000,"P-44-1",          1652,       43.0997,       108.711,            0.,NA,NA,"",   803.241E+03,   864.511E+03,   864.511E+03
C:/temp/Job-44.odb,Step-1,Increment      1: Step Time =    1.000,"P-44-1",          1653,       47.3554,       126.495,            0.,NA,NA,"",   948.038E+03,   978.987E+03,   978.987E+03
C:/temp/Job-44.odb,Step-1,Increment      1: Step Time =    1.000,"P-44-1",          1654,       155.974,       70.4634,            0.,NA,NA,"",   1.03488E+06,   1.01828E+06,   1.01828E+06
C:/temp/Job-44.odb,Step-1,Increment      1: Step Time =    1.000,"P-44-1",          1655,       190.262,       55.2447,            0.,NA,NA,"",   992.244E+03,   1.00294E+06,   1.00294E+06
C:/temp/Job-44.odb,Step-1,Increment      1: Step Time =    1.000,"P-44-1",          1656,       55.1260,       9.75972,            0.,NA,NA,"",   1.00684E+06,   1.00695E+06,   1.00695E+06
C:/temp/Job-44.odb,Step-1,Increment      1: Step Time =    1.000,"P-44-1",          1657,       144.814,       189.972,            0.,NA,NA,"",   992.835E+03,   991.573E+03,   991.573E+03
C:/temp/Job-44.odb,Step-1,Increment      1: Step Time =    1.000,"P-44-1",          1658,       9.40896,       144.573,            0.,NA,NA,"",   866.639E+03,   960.572E+03,   960.572E+03
C:/temp/Job-44.odb,Step-1,Increment      1: Step Time =    1.000,"P-44-1",          1659,       5.15850,       5.08600,            0.,NA,NA,"",   1.35011E+06,   1.40097E+06,   1.40097E+06
C:/temp/Job-44.odb,Step-1,Increment      1: Step Time =    1.000,"P-44-1",          1660,       93.3736,       118.004,            0.,NA,NA,"",   1.65845E+06,   1.73224E+06,   1.73224E+06
C:/temp/Job-44.odb,Step-1,Increment      1: Step Time =    1.000,"P-44-1",          1661,       77.7401,       105.127,            0.,NA,NA,"",   570.353E+03,   355.452E+03,   355.452E+03
C:/temp/Job-44.odb,Step-1,Increment      1: Step Time =    1.000,"P-44-1",          1662,       117.338,       95.9782,            0.,NA,NA,"",   559.307E+03,  -9.00322E+03,  -9.00322E+03
C:/temp/Job-44.odb,Step-1,Increment      1: Step Time =    1.000,"P-44-1",          1663,       107.106,       81.3463,            0.,NA,NA,"",   1.62118E+06,   1.68636E+06,   1.68636E+06
C:/temp/Job-44.odb,Step-1,Increment      1: Step Time =    1.000,"P-44-1",          1664,       114.631,       84.7388,            0.,NA,NA,"",   1.31770E+06,   1.23382E+06,   1.23382E+06
C:/temp/Job-44.odb,Step-1,Increment      1: Step Time =    1.000,"P-44-1",          1665,       86.6162,       116.210,            0.,NA,NA,"",   1.33641E+06,   1.30123E+06,   1.30123E+06
C:/temp/Job-44.odb,Step-1,Increment      1: Step Time =    1.000,"P-44-1",          1666,       191.107,       149.159,            0.,NA,NA,"",   993.819E+03,   1.00253E+06,   1.00253E+06
C:/temp/Job-44.odb,Step-1,Increment      1: Step Time =    1.000,"P-44-1",          1667,       50.7093,       190.917,            0.,NA,NA,"",   1.01156E+06,   1.01189E+06,   1.01189E+06
C:/temp/Job-44.odb,Step-1,Increment      1: Step Time =    1.000,"P-44-1",          1668,       75.4699,       87.2572,            0.,NA,NA,"",   1.00377E+06,   910.285E+03,   910.285E+03
C:/temp/Job-44.odb,Step-1,Increment      1: Step Time =    1.000,"P-44-1",          1669,       125.978,       100.230,            0.,NA,NA,"",   467.742E+03,   452.450E+03,   452.450E+03
C:/temp/Job-44.odb,Step-1,Increment      1: Step Time =    1.000,"P-44-1",          1670,       94.0341,       70.3037,            0.,NA,NA,"",   1.17716E+06,   1.26348E+06,   1.26348E+06
C:/temp/Job-44.odb,Step-1,Increment      1: Step Time =    1.000,"P-44-1",          1671,       104.463,       129.579,            0.,NA,NA,"",   1.15793E+06,   1.25533E+06,   1.25533E+06
C:/temp/Job-44.odb,Step-1,Increment      1: Step Time =    1.000,"P-44-1",          1672,       125.201,       107.024,            0.,NA,NA,"",   734.707E+03,   657.043E+03,   657.043E+03
C:/temp/Job-44.odb,Step-1,Increment      1: Step Time =    1.000,"P-44-1",          1673,       39.8588,       183.700,            0.,NA,NA,"",   1.05413E+06,   1.05958E+06,   1.05958E+06
C:/temp/Job-44.odb,Step-1,Increment      1: Step Time =    1.000,"P-44-1",          1674,       173.590,       14.6147,            0.,NA,NA,"",   1.00332E+06,   1.00251E+06,   1.00251E+06
C:/temp/Job-44.odb,Step-1,Increment      1: Step Time =    1.000,"P-44-1",          1675,       168.614,       14.5316,            0.,NA,NA,"",   1.00410E+06,   1.00286E+06,   1.00286E+06
C:/temp/Job-44.odb,Step-1,Increment      1: Step Time =    1.000,"P-44-1",          1676,       185.631,       174.741,            0.,NA,NA,"",   1.00260E+06,   1.00298E+06,   1.00298E+06
C:/temp/Job-44.odb,Step-1,Increment      1: Step Time =    1.000,"P-44-1",          1677,       185.461,       169.980,            0.,NA,NA,"",   1.00319E+06,   1.00398E+06,   1.00398E+06
C:/temp/Job-44.odb,Step-1,Increment      1: Step Time =    1.000,"P-44-1",          1678,       131.738,       107.697,            0.,NA,NA,"",   777.984E+03,   749.319E+03,   749.319E+03
C:/temp/Job-44.odb,Step-1,Increment      1: Step Time =    1.000,"P-44-1",          1679,       122.480,       117.304,            0.,NA,NA,"",   1.24243E+06,   1.12549E+06,   1.12549E+06
C:/temp/Job-44.odb,Step-1,Increment      1: Step Time =    1.000,"P-44-1",          1680,       132.474,       101.308,            0.,NA,NA,"",   614.336E+03,   625.683E+03,   625.683E+03
C:/temp/Job-44.odb,Step-1,Increment      1: Step Time =    1.000,"P-44-1",          1681,       123.270,       87.3200,            0.,NA,NA,"",   1.06264E+06,   937.048E+03,   937.048E+03
C:/temp/Job-44.odb,Step-1,Increment      1: Step Time =    1.000,"P-44-1",          1682,       108.466,       65.6692,            0.,NA,NA,"",   1.13552E+06,   1.19245E+06,   1.19245E+06
C:/temp/Job-44.odb,Step-1,Increment      1: Step Time =    1.000,"P-44-1",          1683,       66.8985,       106.369,            0.,NA,NA,"",   679.595E+03,   701.357E+03,   701.357E+03
C:/temp/Job-44.odb,Step-1,Increment      1: Step Time =    1.000,"P-44-1",          1684,       64.8026,       110.410,            0.,NA,NA,"",   801.988E+03,   810.819E+03,   810.819E+03
C:/temp/Job-44.odb,Step-1,Increment      1: Step Time =    1.000,"P-44-1",          1685,       43.2848,       182.716,            0.,NA,NA,"",   1.04873E+06,   1.05298E+06,   1.05298E+06
C:/temp/Job-44.odb,Step-1,Increment      1: Step Time =    1.000,"P-44-1",          1686,       113.351,       122.048,            0.,NA,NA,"",   1.34588E+06,   1.32157E+06,   1.32157E+06
C:/temp/Job-44.odb,Step-1,Increment      1: Step Time =    1.000,"P-44-1",          1687,       117.056,       124.836,            0.,NA,NA,"",   1.31452E+06,   1.26868E+06,   1.26868E+06
C:/temp/Job-44.odb,Step-1,Increment      1: Step Time =    1.000,"P-44-1",          1688,       44.5048,       179.060,            0.,NA,NA,"",   1.05339E+06,   1.05892E+06,   1.05892E+06
C:/temp/Job-44.odb,Step-1,Increment      1: Step Time =    1.000,"P-44-1",          1689,       13.5743,       53.3460,            0.,NA,NA,"",   889.764E+03,   976.608E+03,   976.608E+03
C:/temp/Job-44.odb,Step-1,Increment      1: Step Time =    1.000,"P-44-1",          1690,       127.538,       87.7673,            0.,NA,NA,"",   987.827E+03,   903.268E+03,   903.268E+03
C:/temp/Job-44.odb,Step-1,Increment      1: Step Time =    1.000,"P-44-1",          1691,       111.652,       64.5520,            0.,NA,NA,"",   1.15045E+06,   1.18546E+06,   1.18546E+06
C:/temp/Job-44.odb,Step-1,Increment      1: Step Time =    1.000,"P-44-1",          1692,       108.239,       61.2636,            0.,NA,NA,"",   1.09069E+06,   1.14484E+06,   1.14484E+06
C:/temp/Job-44.odb,Step-1,Increment      1: Step Time =    1.000,"P-44-1",          1693,       178.722,       162.221,            0.,NA,NA,"",   1.01082E+06,   1.01039E+06,   1.01039E+06
C:/temp/Job-44.odb,Step-1,Increment      1: Step Time =    1.000,"P-44-1",          1694,       138.677,       102.756,            0.,NA,NA,"",    727.76E+03,   741.084E+03,   741.084E+03
C:/temp/Job-44.odb,Step-1,Increment      1: Step Time =    1.000,"P-44-1",          1695,       137.671,       108.332,            0.,NA,NA,"",   821.406E+03,   811.449E+03,   811.449E+03
C:/temp/Job-44.odb,Step-1,Increment      1: Step Time =    1.000,"P-44-1",          1696,       18.4060,       179.706,            0.,NA,NA,"",   1.08503E+06,   1.12829E+06,   1.12829E+06
C:/temp/Job-44.odb,Step-1,Increment      1: Step Time =    1.000,"P-44-1",          1697,       19.5576,       44.5500,            0.,NA,NA,"",   949.535E+03,   1.02049E+06,   1.02049E+06
C:/temp/Job-44.odb,Step-1,Increment      1: Step Time =    1.000,"P-44-1",          1698,       65.7585,       94.0840,            0.,NA,NA,"",   696.331E+03,   723.346E+03,   723.346E+03
C:/temp/Job-44.odb,Step-1,Increment      1: Step Time =    1.000,"P-44-1",          1699,       183.072,       144.973,            0.,NA,NA,"",   1.00115E+06,   1.00749E+06,   1.00749E+06
C:/temp/Job-44.odb,Step-1,Increment      1: Step Time =    1.000,"P-44-1",          1700,       117.979,       135.680,            0.,NA,NA,"",   1.19225E+06,   1.18589E+06,   1.18589E+06
C:/temp/Job-44.odb,Step-1,Increment      1: Step Time =    1.000,"P-44-1",          1701,       117.633,       140.350,            0.,NA,NA,"",   1.14789E+06,   1.15239E+06,   1.15239E+06
C:/temp/Job-44.odb,Step-1,Increment      1: Step Time =    1.000,"P-44-1",          1702,       60.5643,       86.9523,            0.,NA,NA,"",   849.085E+03,   867.081E+03,   867.081E+03
C:/temp/Job-44.odb,Step-1,Increment      1: Step Time =    1.000,"P-44-1",          1703,       63.3050,       120.410,            0.,NA,NA,"",   1.01297E+06,    998.08E+03,    998.08E+03
C:/temp/Job-44.odb,Step-1,Increment      1: Step Time =    1.000,"P-44-1",          1704,       142.563,       101.041,            0.,NA,NA,"",   769.163E+03,   784.333E+03,   784.333E+03
C:/temp/Job-44.odb,Step-1,Increment      1: Step Time =    1.000,"P-44-1",          1705,       123.287,       68.0336,            0.,NA,NA,"",   1.22021E+06,   1.18145E+06,   1.18145E+06
C:/temp/Job-44.odb,Step-1,Increment      1: Step Time =    1.000,"P-44-1",          1706,       20.4682,       29.1869,            0.,NA,NA,"",   1.02818E+06,   1.08183E+06,   1.08183E+06
C:/temp/Job-44.odb,Step-1,Increment      1: Step Time =    1.000,"P-44-1",          1707,       20.5182,       36.3609,            0.,NA,NA,"",   990.683E+03,   1.05242E+06,   1.05242E+06
C:/temp/Job-44.odb,Step-1,Increment      1: Step Time =    1.000,"P-44-1",          1708,       20.3179,       49.1107,            0.,NA,NA,"",   935.164E+03,   1.00665E+06,   1.00665E+06
C:/temp/Job-44.odb,Step-1,Increment      1: Step Time =    1.000,"P-44-1",          1709,       17.7802,       54.9014,            0.,NA,NA,"",   901.921E+03,   981.447E+03,   981.447E+03
C:/temp/Job-44.odb,Step-1,Increment      1: Step Time =    1.000,"P-44-1",          1710,       181.039,       28.8739,            0.,NA,NA,"",   1.00635E+06,   1.00605E+06,   1.00605E+06
C:/temp/Job-44.odb,Step-1,Increment      1: Step Time =    1.000,"P-44-1",          1711,       172.107,       23.2722,            0.,NA,NA,"",   1.00981E+06,   1.00785E+06,   1.00785E+06
C:/temp/Job-44.odb,Step-1,Increment      1: Step Time =    1.000,"P-44-1",          1712,       180.450,       55.3921,            0.,NA,NA,"",   1.00529E+06,   1.00965E+06,   1.00965E+06
C:/temp/Job-44.odb,Step-1,Increment      1: Step Time =    1.000,"P-44-1",          1713,       172.679,       181.377,            0.,NA,NA,"",   1.00587E+06,   1.00469E+06,   1.00469E+06
C:/temp/Job-44.odb,Step-1,Increment      1: Step Time =    1.000,"P-44-1",          1714,       177.403,       174.449,            0.,NA,NA,"",   1.00754E+06,   1.00659E+06,   1.00659E+06
C:/temp/Job-44.odb,Step-1,Increment      1: Step Time =    1.000,"P-44-1",          1715,       174.588,       163.856,            0.,NA,NA,"",   1.01554E+06,   1.01330E+06,   1.01330E+06
C:/temp/Job-44.odb,Step-1,Increment      1: Step Time =    1.000,"P-44-1",          1716,       172.477,       160.313,            0.,NA,NA,"",   1.02023E+06,   1.01684E+06,   1.01684E+06
C:/temp/Job-44.odb,Step-1,Increment      1: Step Time =    1.000,"P-44-1",          1717,       144.643,       179.550,            0.,NA,NA,"",   1.01485E+06,   1.01060E+06,   1.01060E+06
C:/temp/Job-44.odb,Step-1,Increment      1: Step Time =    1.000,"P-44-1",          1718,       49.4423,       181.105,            0.,NA,NA,"",   1.04314E+06,   1.04576E+06,   1.04576E+06
C:/temp/Job-44.odb,Step-1,Increment      1: Step Time =    1.000,"P-44-1",          1719,       140.222,       110.887,            0.,NA,NA,"",   880.933E+03,   865.656E+03,   865.656E+03
C:/temp/Job-44.odb,Step-1,Increment      1: Step Time =    1.000,"P-44-1",          1720,       146.816,       108.296,            0.,NA,NA,"",   864.995E+03,   868.512E+03,   868.512E+03
C:/temp/Job-44.odb,Step-1,Increment      1: Step Time =    1.000,"P-44-1",          1721,       108.645,       56.7951,            0.,NA,NA,"",   1.07165E+06,   1.11619E+06,   1.11619E+06
C:/temp/Job-44.odb,Step-1,Increment      1: Step Time =    1.000,"P-44-1",          1722,       112.853,       57.0559,            0.,NA,NA,"",   1.09890E+06,   1.12725E+06,   1.12725E+06
C:/temp/Job-44.odb,Step-1,Increment      1: Step Time =    1.000,"P-44-1",          1723,       82.1803,       53.5284,            0.,NA,NA,"",   1.10271E+06,   1.11997E+06,   1.11997E+06
C:/temp/Job-44.odb,Step-1,Increment      1: Step Time =    1.000,"P-44-1",          1724,       100.104,       56.3613,            0.,NA,NA,"",   1.04442E+06,   1.10280E+06,   1.10280E+06
C:/temp/Job-44.odb,Step-1,Increment      1: Step Time =    1.000,"P-44-1",          1725,       176.120,       113.172,            0.,NA,NA,"",   960.539E+03,   978.672E+03,   978.672E+03
C:/temp/Job-44.odb,Step-1,Increment      1: Step Time =    1.000,"P-44-1",          1726,       21.6759,       47.0343,            0.,NA,NA,"",   948.381E+03,   1.01620E+06,   1.01620E+06
C:/temp/Job-44.odb,Step-1,Increment      1: Step Time =    1.000,"P-44-1",          1727,       16.7915,       62.2417,            0.,NA,NA,"",   871.299E+03,   955.024E+03,   955.024E+03
C:/temp/Job-44.odb,Step-1,Increment      1: Step Time =    1.000,"P-44-1",          1728,       17.0313,       66.3208,            0.,NA,NA,"",   857.711E+03,   942.177E+03,   942.177E+03
C:/temp/Job-44.odb,Step-1,Increment      1: Step Time =    1.000,"P-44-1",          1729,       76.8856,       145.050,            0.,NA,NA,"",   1.12266E+06,   1.12748E+06,   1.12748E+06
C:/temp/Job-44.odb,Step-1,Increment      1: Step Time =    1.000,"P-44-1",          1730,       122.108,       132.851,            0.,NA,NA,"",   1.21988E+06,   1.18376E+06,   1.18376E+06
C:/temp/Job-44.odb,Step-1,Increment      1: Step Time =    1.000,"P-44-1",          1731,       24.7251,       24.1420,            0.,NA,NA,"",   1.06115E+06,   1.09668E+06,   1.09668E+06
C:/temp/Job-44.odb,Step-1,Increment      1: Step Time =    1.000,"P-44-1",          1732,       166.559,       153.580,            0.,NA,NA,"",   1.03413E+06,   1.02647E+06,   1.02647E+06
C:/temp/Job-44.odb,Step-1,Increment      1: Step Time =    1.000,"P-44-1",          1733,       54.9772,       19.7906,            0.,NA,NA,"",   1.03843E+06,   1.03967E+06,   1.03967E+06
C:/temp/Job-44.odb,Step-1,Increment      1: Step Time =    1.000,"P-44-1",          1734,       71.0307,       62.5836,            0.,NA,NA,"",   1.14883E+06,   1.13319E+06,   1.13319E+06
C:/temp/Job-44.odb,Step-1,Increment      1: Step Time =    1.000,"P-44-1",          1735,       24.0558,       50.4860,            0.,NA,NA,"",   943.226E+03,   1.00841E+06,   1.00841E+06
C:/temp/Job-44.odb,Step-1,Increment      1: Step Time =    1.000,"P-44-1",          1736,       21.7778,       56.2972,            0.,NA,NA,"",   912.895E+03,   985.539E+03,   985.539E+03
C:/temp/Job-44.odb,Step-1,Increment      1: Step Time =    1.000,"P-44-1",          1737,       21.0599,       59.4206,            0.,NA,NA,"",   897.660E+03,   973.172E+03,   973.172E+03
C:/temp/Job-44.odb,Step-1,Increment      1: Step Time =    1.000,"P-44-1",          1738,       144.574,       96.2029,            0.,NA,NA,"",   813.970E+03,   824.484E+03,   824.484E+03
C:/temp/Job-44.odb,Step-1,Increment      1: Step Time =    1.000,"P-44-1",          1739,       19.3100,       170.578,            0.,NA,NA,"",   1.02164E+06,   1.07868E+06,   1.07868E+06
C:/temp/Job-44.odb,Step-1,Increment      1: Step Time =    1.000,"P-44-1",          1740,       19.1388,       144.133,            0.,NA,NA,"",   904.274E+03,   981.760E+03,   981.760E+03
C:/temp/Job-44.odb,Step-1,Increment      1: Step Time =    1.000,"P-44-1",          1741,       24.7898,       36.5492,            0.,NA,NA,"",   1.00703E+06,   1.05831E+06,   1.05831E+06
C:/temp/Job-44.odb,Step-1,Increment      1: Step Time =    1.000,"P-44-1",          1742,       25.1545,       39.7964,            0.,NA,NA,"",   993.157E+03,   1.04732E+06,   1.04732E+06
C:/temp/Job-44.odb,Step-1,Increment      1: Step Time =    1.000,"P-44-1",          1743,       172.148,       168.780,            0.,NA,NA,"",   1.01522E+06,   1.01247E+06,   1.01247E+06
C:/temp/Job-44.odb,Step-1,Increment      1: Step Time =    1.000,"P-44-1",          1744,       168.686,       162.535,            0.,NA,NA,"",   1.02479E+06,   1.01966E+06,   1.01966E+06
C:/temp/Job-44.odb,Step-1,Increment      1: Step Time =    1.000,"P-44-1",          1745,       166.128,       159.572,            0.,NA,NA,"",   1.03130E+06,   1.02431E+06,   1.02431E+06
C:/temp/Job-44.odb,Step-1,Increment      1: Step Time =    1.000,"P-44-1",          1746,       176.443,       28.1893,            0.,NA,NA,"",   1.00939E+06,   1.00808E+06,   1.00808E+06
C:/temp/Job-44.odb,Step-1,Increment      1: Step Time =    1.000,"P-44-1",          1747,       152.616,       30.1364,            0.,NA,NA,"",   1.03404E+06,   1.02606E+06,   1.02606E+06
C:/temp/Job-44.odb,Step-1,Increment      1: Step Time =    1.000,"P-44-1",          1748,       113.597,       52.5975,            0.,NA,NA,"",   1.07909E+06,   1.10261E+06,   1.10261E+06
C:/temp/Job-44.odb,Step-1,Increment      1: Step Time =    1.000,"P-44-1",          1749,       117.596,       53.1133,            0.,NA,NA,"",   1.10017E+06,   1.11104E+06,   1.11104E+06
C:/temp/Job-44.odb,Step-1,Increment      1: Step Time =    1.000,"P-44-1",          1750,       108.446,       148.955,            0.,NA,NA,"",   1.05007E+06,   1.08629E+06,   1.08629E+06
C:/temp/Job-44.odb,Step-1,Increment      1: Step Time =    1.000,"P-44-1",          1751,       125.768,       64.7392,            0.,NA,NA,"",   1.19169E+06,   1.15699E+06,   1.15699E+06
C:/temp/Job-44.odb,Step-1,Increment      1: Step Time =    1.000,"P-44-1",          1752,       129.345,       65.8466,            0.,NA,NA,"",   1.18357E+06,   1.14014E+06,   1.14014E+06
C:/temp/Job-44.odb,Step-1,Increment      1: Step Time =    1.000,"P-44-1",          1753,       71.3715,       144.387,            0.,NA,NA,"",   1.12594E+06,   1.12081E+06,   1.12081E+06
C:/temp/Job-44.odb,Step-1,Increment      1: Step Time =    1.000,"P-44-1",          1754,       51.2570,       107.757,            0.,NA,NA,"",   782.734E+03,   834.053E+03,   834.053E+03
C:/temp/Job-44.odb,Step-1,Increment      1: Step Time =    1.000,"P-44-1",          1755,       87.1974,       50.0799,            0.,NA,NA,"",   1.06495E+06,   1.09450E+06,   1.09450E+06
C:/temp/Job-44.odb,Step-1,Increment      1: Step Time =    1.000,"P-44-1",          1756,       55.6831,       176.309,            0.,NA,NA,"",   1.04638E+06,   1.04824E+06,   1.04824E+06
C:/temp/Job-44.odb,Step-1,Increment      1: Step Time =    1.000,"P-44-1",          1757,       164.896,       147.368,            0.,NA,NA,"",   1.03812E+06,   1.02885E+06,   1.02885E+06
C:/temp/Job-44.odb,Step-1,Increment      1: Step Time =    1.000,"P-44-1",          1758,       165.879,       143.304,            0.,NA,NA,"",   1.03355E+06,   1.02542E+06,   1.02542E+06
C:/temp/Job-44.odb,Step-1,Increment      1: Step Time =    1.000,"P-44-1",          1759,       21.5719,       85.8161,            0.,NA,NA,"",   807.615E+03,   892.377E+03,   892.377E+03
C:/temp/Job-44.odb,Step-1,Increment      1: Step Time =    1.000,"P-44-1",          1760,       23.7928,       172.779,            0.,NA,NA,"",   1.04785E+06,   1.08939E+06,   1.08939E+06
C:/temp/Job-44.odb,Step-1,Increment      1: Step Time =    1.000,"P-44-1",          1761,       120.646,       56.9373,            0.,NA,NA,"",   1.13605E+06,   1.13241E+06,   1.13241E+06
C:/temp/Job-44.odb,Step-1,Increment      1: Step Time =    1.000,"P-44-1",          1762,       23.0064,       169.589,            0.,NA,NA,"",   1.02899E+06,   1.07706E+06,   1.07706E+06
C:/temp/Job-44.odb,Step-1,Increment      1: Step Time =    1.000,"P-44-1",          1763,       177.989,       30.0026,            0.,NA,NA,"",   1.00892E+06,   1.00796E+06,   1.00796E+06
C:/temp/Job-44.odb,Step-1,Increment      1: Step Time =    1.000,"P-44-1",          1764,       20.9413,       66.2327,            0.,NA,NA,"",   872.491E+03,   950.777E+03,   950.777E+03
C:/temp/Job-44.odb,Step-1,Increment      1: Step Time =    1.000,"P-44-1",          1765,       22.1385,       69.8461,            0.,NA,NA,"",   861.784E+03,   939.777E+03,   939.777E+03
C:/temp/Job-44.odb,Step-1,Increment      1: Step Time =    1.000,"P-44-1",          1766,       64.9382,       177.043,            0.,NA,NA,"",   1.03400E+06,   1.03514E+06,   1.03514E+06
C:/temp/Job-44.odb,Step-1,Increment      1: Step Time =    1.000,"P-44-1",          1767,       52.0529,       88.4570,            0.,NA,NA,"",   823.351E+03,   866.469E+03,   866.469E+03
C:/temp/Job-44.odb,Step-1,Increment      1: Step Time =    1.000,"P-44-1",          1768,       51.4315,       85.3475,            0.,NA,NA,"",   851.997E+03,   891.370E+03,   891.370E+03
C:/temp/Job-44.odb,Step-1,Increment      1: Step Time =    1.000,"P-44-1",          1769,       72.9795,       55.2653,            0.,NA,NA,"",   1.12789E+06,   1.12413E+06,   1.12413E+06
C:/temp/Job-44.odb,Step-1,Increment      1: Step Time =    1.000,"P-44-1",          1770,       159.806,       154.077,            0.,NA,NA,"",   1.04808E+06,   1.03601E+06,   1.03601E+06
C:/temp/Job-44.odb,Step-1,Increment      1: Step Time =    1.000,"P-44-1",          1771,       149.286,       115.587,            0.,NA,NA,"",   952.064E+03,   942.044E+03,   942.044E+03
C:/temp/Job-44.odb,Step-1,Increment      1: Step Time =    1.000,"P-44-1",          1772,       74.3464,       47.1049,            0.,NA,NA,"",   1.09335E+06,   1.09792E+06,   1.09792E+06
C:/temp/Job-44.odb,Step-1,Increment      1: Step Time =    1.000,"P-44-1",          1773,       173.169,       117.634,            0.,NA,NA,"",   969.768E+03,   982.273E+03,   982.273E+03
C:/temp/Job-44.odb,Step-1,Increment      1: Step Time =    1.000,"P-44-1",          1774,       124.991,       151.347,            0.,NA,NA,"",   1.09977E+06,   1.09340E+06,   1.09340E+06
C:/temp/Job-44.odb,Step-1,Increment      1: Step Time =    1.000,"P-44-1",          1775,       135.564,       136.123,            0.,NA,NA,"",   1.14718E+06,   1.10560E+06,   1.10560E+06
C:/temp/Job-44.odb,Step-1,Increment      1: Step Time =    1.000,"P-44-1",          1776,       130.974,       143.916,            0.,NA,NA,"",   1.13935E+06,   1.11242E+06,   1.11242E+06
C:/temp/Job-44.odb,Step-1,Increment      1: Step Time =    1.000,"P-44-1",          1777,       68.3469,       60.7083,            0.,NA,NA,"",   1.13289E+06,   1.11967E+06,   1.11967E+06
C:/temp/Job-44.odb,Step-1,Increment      1: Step Time =    1.000,"P-44-1",          1778,       68.4369,       57.8327,            0.,NA,NA,"",   1.12572E+06,   1.11648E+06,   1.11648E+06
C:/temp/Job-44.odb,Step-1,Increment      1: Step Time =    1.000,"P-44-1",          1779,       59.6144,       64.4620,            0.,NA,NA,"",   1.08086E+06,   1.07564E+06,   1.07564E+06
C:/temp/Job-44.odb,Step-1,Increment      1: Step Time =    1.000,"P-44-1",          1780,       148.488,       94.8519,            0.,NA,NA,"",   854.225E+03,   863.562E+03,   863.562E+03
C:/temp/Job-44.odb,Step-1,Increment      1: Step Time =    1.000,"P-44-1",          1781,       150.385,       98.0173,            0.,NA,NA,"",   850.374E+03,   863.622E+03,   863.622E+03
C:/temp/Job-44.odb,Step-1,Increment      1: Step Time =    1.000,"P-44-1",          1782,       157.119,       108.801,            0.,NA,NA,"",   911.228E+03,   920.615E+03,   920.615E+03
C:/temp/Job-44.odb,Step-1,Increment      1: Step Time =    1.000,"P-44-1",          1783,       146.270,       79.4503,            0.,NA,NA,"",   1.01253E+06,   987.711E+03,   987.711E+03
C:/temp/Job-44.odb,Step-1,Increment      1: Step Time =    1.000,"P-44-1",          1784,       147.853,       82.1362,            0.,NA,NA,"",   980.554E+03,   962.813E+03,   962.813E+03
C:/temp/Job-44.odb,Step-1,Increment      1: Step Time =    1.000,"P-44-1",          1785,       28.7337,       40.2086,            0.,NA,NA,"",   1.00725E+06,   1.05264E+06,   1.05264E+06
C:/temp/Job-44.odb,Step-1,Increment      1: Step Time =    1.000,"P-44-1",          1786,       31.1969,       33.9959,            0.,NA,NA,"",   1.03231E+06,   1.06734E+06,   1.06734E+06
C:/temp/Job-44.odb,Step-1,Increment      1: Step Time =    1.000,"P-44-1",          1787,       168.534,       170.452,            0.,NA,NA,"",   1.01768E+06,   1.01395E+06,   1.01395E+06
C:/temp/Job-44.odb,Step-1,Increment      1: Step Time =    1.000,"P-44-1",          1788,       167.290,       167.444,            0.,NA,NA,"",   1.02227E+06,   1.01743E+06,   1.01743E+06
C:/temp/Job-44.odb,Step-1,Increment      1: Step Time =    1.000,"P-44-1",          1789,       24.8078,       60.4046,            0.,NA,NA,"",   909.117E+03,   977.975E+03,   977.975E+03
C:/temp/Job-44.odb,Step-1,Increment      1: Step Time =    1.000,"P-44-1",          1790,       26.9948,       52.2274,            0.,NA,NA,"",   948.507E+03,   1.00931E+06,   1.00931E+06
C:/temp/Job-44.odb,Step-1,Increment      1: Step Time =    1.000,"P-44-1",          1791,       175.305,       110.050,            0.,NA,NA,"",   954.037E+03,   973.060E+03,   973.060E+03
C:/temp/Job-44.odb,Step-1,Increment      1: Step Time =    1.000,"P-44-1",          1792,       175.491,       102.379,            0.,NA,NA,"",   947.324E+03,   968.370E+03,   968.370E+03
C:/temp/Job-44.odb,Step-1,Increment      1: Step Time =    1.000,"P-44-1",          1793,       54.2995,       161.858,            0.,NA,NA,"",   1.06736E+06,   1.07293E+06,   1.07293E+06
C:/temp/Job-44.odb,Step-1,Increment      1: Step Time =    1.000,"P-44-1",          1794,       127.250,       61.8753,            0.,NA,NA,"",   1.17284E+06,   1.14195E+06,   1.14195E+06
C:/temp/Job-44.odb,Step-1,Increment      1: Step Time =    1.000,"P-44-1",          1795,       135.392,       62.3689,            0.,NA,NA,"",   1.14573E+06,   1.10719E+06,   1.10719E+06
C:/temp/Job-44.odb,Step-1,Increment      1: Step Time =    1.000,"P-44-1",          1796,       140.837,       128.469,            0.,NA,NA,"",   1.10351E+06,   1.05973E+06,   1.05973E+06
C:/temp/Job-44.odb,Step-1,Increment      1: Step Time =    1.000,"P-44-1",          1797,       49.6017,       77.0784,            0.,NA,NA,"",   924.154E+03,   955.053E+03,   955.053E+03
C:/temp/Job-44.odb,Step-1,Increment      1: Step Time =    1.000,"P-44-1",          1798,       50.2288,       72.8471,            0.,NA,NA,"",   962.423E+03,   986.241E+03,   986.241E+03
C:/temp/Job-44.odb,Step-1,Increment      1: Step Time =    1.000,"P-44-1",          1799,       47.1335,       106.689,            0.,NA,NA,"",   787.472E+03,   845.129E+03,   845.129E+03
C:/temp/Job-44.odb,Step-1,Increment      1: Step Time =    1.000,"P-44-1",          1800,       92.1236,       46.2164,            0.,NA,NA,"",   1.03875E+06,   1.07186E+06,   1.07186E+06
C:/temp/Job-44.odb,Step-1,Increment      1: Step Time =    1.000,"P-44-1",          1801,       30.1472,       55.5724,            0.,NA,NA,"",   949.768E+03,   1.00548E+06,   1.00548E+06
C:/temp/Job-44.odb,Step-1,Increment      1: Step Time =    1.000,"P-44-1",          1802,       134.426,       128.829,            0.,NA,NA,"",   1.15315E+06,   1.09777E+06,   1.09777E+06
C:/temp/Job-44.odb,Step-1,Increment      1: Step Time =    1.000,"P-44-1",          1803,       32.9046,       21.6208,            0.,NA,NA,"",   1.06827E+06,   1.08485E+06,   1.08485E+06
C:/temp/Job-44.odb,Step-1,Increment      1: Step Time =    1.000,"P-44-1",          1804,       23.9813,       65.8081,            0.,NA,NA,"",   884.536E+03,   957.865E+03,   957.865E+03
C:/temp/Job-44.odb,Step-1,Increment      1: Step Time =    1.000,"P-44-1",          1805,       156.523,       156.874,            0.,NA,NA,"",   1.05159E+06,   1.03874E+06,   1.03874E+06
C:/temp/Job-44.odb,Step-1,Increment      1: Step Time =    1.000,"P-44-1",          1806,       153.274,       153.686,            0.,NA,NA,"",   1.06263E+06,   1.04661E+06,   1.04661E+06
C:/temp/Job-44.odb,Step-1,Increment      1: Step Time =    1.000,"P-44-1",          1807,       34.7591,       24.9788,            0.,NA,NA,"",   1.06220E+06,   1.08083E+06,   1.08083E+06
C:/temp/Job-44.odb,Step-1,Increment      1: Step Time =    1.000,"P-44-1",          1808,       64.5370,       173.289,            0.,NA,NA,"",   1.04511E+06,   1.04647E+06,   1.04647E+06
C:/temp/Job-44.odb,Step-1,Increment      1: Step Time =    1.000,"P-44-1",          1809,       68.5235,       171.850,            0.,NA,NA,"",   1.04370E+06,   1.04608E+06,   1.04608E+06
C:/temp/Job-44.odb,Step-1,Increment      1: Step Time =    1.000,"P-44-1",          1810,       166.023,       134.254,            0.,NA,NA,"",   1.02033E+06,   1.01475E+06,   1.01475E+06
C:/temp/Job-44.odb,Step-1,Increment      1: Step Time =    1.000,"P-44-1",          1811,       48.5947,       103.269,            0.,NA,NA,"",   772.127E+03,   830.523E+03,   830.523E+03
C:/temp/Job-44.odb,Step-1,Increment      1: Step Time =    1.000,"P-44-1",          1812,       51.3769,       68.0784,            0.,NA,NA,"",   1.00344E+06,   1.01939E+06,   1.01939E+06
C:/temp/Job-44.odb,Step-1,Increment      1: Step Time =    1.000,"P-44-1",          1813,       127.876,       57.2352,            0.,NA,NA,"",   1.14385E+06,   1.12129E+06,   1.12129E+06
C:/temp/Job-44.odb,Step-1,Increment      1: Step Time =    1.000,"P-44-1",          1814,       24.9943,       82.6628,            0.,NA,NA,"",   822.879E+03,   902.463E+03,   902.463E+03
C:/temp/Job-44.odb,Step-1,Increment      1: Step Time =    1.000,"P-44-1",          1815,       22.6425,       139.769,            0.,NA,NA,"",   900.895E+03,   974.312E+03,   974.312E+03
C:/temp/Job-44.odb,Step-1,Increment      1: Step Time =    1.000,"P-44-1",          1816,       31.8593,       39.6764,            0.,NA,NA,"",   1.01772E+06,   1.05621E+06,   1.05621E+06
C:/temp/Job-44.odb,Step-1,Increment      1: Step Time =    1.000,"P-44-1",          1817,       36.8448,       45.0766,            0.,NA,NA,"",   1.01723E+06,   1.05075E+06,   1.05075E+06
C:/temp/Job-44.odb,Step-1,Increment      1: Step Time =    1.000,"P-44-1",          1818,       137.773,       58.2047,            0.,NA,NA,"",   1.12791E+06,   1.09610E+06,   1.09610E+06
C:/temp/Job-44.odb,Step-1,Increment      1: Step Time =    1.000,"P-44-1",          1819,       145.810,       60.4379,            0.,NA,NA,"",   1.09970E+06,   1.06940E+06,   1.06940E+06
C:/temp/Job-44.odb,Step-1,Increment      1: Step Time =    1.000,"P-44-1",          1820,       150.072,       61.6796,            0.,NA,NA,"",   1.08120E+06,   1.05482E+06,   1.05482E+06
C:/temp/Job-44.odb,Step-1,Increment      1: Step Time =    1.000,"P-44-1",          1821,       70.7286,       41.9644,            0.,NA,NA,"",   1.07998E+06,   1.08296E+06,   1.08296E+06
C:/temp/Job-44.odb,Step-1,Increment      1: Step Time =    1.000,"P-44-1",          1822,       149.309,       78.7504,            0.,NA,NA,"",   1.00762E+06,   987.590E+03,   987.590E+03
C:/temp/Job-44.odb,Step-1,Increment      1: Step Time =    1.000,"P-44-1",          1823,       151.076,       80.6288,            0.,NA,NA,"",   989.502E+03,   974.375E+03,   974.375E+03
C:/temp/Job-44.odb,Step-1,Increment      1: Step Time =    1.000,"P-44-1",          1824,       66.0155,       61.7893,            0.,NA,NA,"",   1.12188E+06,   1.10925E+06,   1.10925E+06
C:/temp/Job-44.odb,Step-1,Increment      1: Step Time =    1.000,"P-44-1",          1825,       44.5240,       96.1191,            0.,NA,NA,"",   786.346E+03,   848.662E+03,   848.662E+03
C:/temp/Job-44.odb,Step-1,Increment      1: Step Time =    1.000,"P-44-1",          1826,       44.0715,       92.4011,            0.,NA,NA,"",   800.003E+03,   860.573E+03,   860.573E+03
C:/temp/Job-44.odb,Step-1,Increment      1: Step Time =    1.000,"P-44-1",          1827,       164.702,       168.952,            0.,NA,NA,"",   1.02360E+06,   1.01822E+06,   1.01822E+06
C:/temp/Job-44.odb,Step-1,Increment      1: Step Time =    1.000,"P-44-1",          1828,       160.204,       106.529,            0.,NA,NA,"",   913.197E+03,   925.871E+03,   925.871E+03
C:/temp/Job-44.odb,Step-1,Increment      1: Step Time =    1.000,"P-44-1",          1829,       145.250,       127.846,            0.,NA,NA,"",   1.07469E+06,   1.03985E+06,   1.03985E+06
C:/temp/Job-44.odb,Step-1,Increment      1: Step Time =    1.000,"P-44-1",          1830,       88.1292,       41.4874,            0.,NA,NA,"",   1.03972E+06,   1.06304E+06,   1.06304E+06
C:/temp/Job-44.odb,Step-1,Increment      1: Step Time =    1.000,"P-44-1",          1831,       96.9680,       41.9175,            0.,NA,NA,"",   1.02346E+06,   1.05354E+06,   1.05354E+06
C:/temp/Job-44.odb,Step-1,Increment      1: Step Time =    1.000,"P-44-1",          1832,       45.7115,       72.0704,            0.,NA,NA,"",   942.779E+03,   977.416E+03,   977.416E+03
C:/temp/Job-44.odb,Step-1,Increment      1: Step Time =    1.000,"P-44-1",          1833,       170.833,       106.272,            0.,NA,NA,"",   941.014E+03,   958.627E+03,   958.627E+03
C:/temp/Job-44.odb,Step-1,Increment      1: Step Time =    1.000,"P-44-1",          1834,       128.266,       23.5865,            0.,NA,NA,"",   1.01367E+06,   1.01290E+06,   1.01290E+06
C:/temp/Job-44.odb,Step-1,Increment      1: Step Time =    1.000,"P-44-1",          1835,       123.906,       23.0613,            0.,NA,NA,"",   1.00800E+06,   1.00924E+06,   1.00924E+06
C:/temp/Job-44.odb,Step-1,Increment      1: Step Time =    1.000,"P-44-1",          1836,       27.8080,       61.1174,            0.,NA,NA,"",   918.197E+03,   981.975E+03,   981.975E+03
C:/temp/Job-44.odb,Step-1,Increment      1: Step Time =    1.000,"P-44-1",          1837,       63.3250,       165.048,            0.,NA,NA,"",   1.06553E+06,   1.06776E+06,   1.06776E+06
C:/temp/Job-44.odb,Step-1,Increment      1: Step Time =    1.000,"P-44-1",          1838,       152.646,       83.0502,            0.,NA,NA,"",   964.092E+03,   956.560E+03,   956.560E+03
C:/temp/Job-44.odb,Step-1,Increment      1: Step Time =    1.000,"P-44-1",          1839,       53.9976,       62.0610,            0.,NA,NA,"",   1.04721E+06,   1.05501E+06,   1.05501E+06
C:/temp/Job-44.odb,Step-1,Increment      1: Step Time =    1.000,"P-44-1",          1840,       143.340,       132.988,            0.,NA,NA,"",   1.10191E+06,   1.06504E+06,   1.06504E+06
C:/temp/Job-44.odb,Step-1,Increment      1: Step Time =    1.000,"P-44-1",          1841,       34.1765,       57.1854,            0.,NA,NA,"",   961.860E+03,   1.00987E+06,   1.00987E+06
C:/temp/Job-44.odb,Step-1,Increment      1: Step Time =    1.000,"P-44-1",          1842,       149.734,       156.040,            0.,NA,NA,"",   1.06577E+06,   1.04961E+06,   1.04961E+06
C:/temp/Job-44.odb,Step-1,Increment      1: Step Time =    1.000,"P-44-1",          1843,       52.4330,       134.009,            0.,NA,NA,"",   1.02313E+06,   1.03586E+06,   1.03586E+06
C:/temp/Job-44.odb,Step-1,Increment      1: Step Time =    1.000,"P-44-1",          1844,       54.0988,       152.216,            0.,NA,NA,"",   1.06834E+06,   1.07539E+06,   1.07539E+06
C:/temp/Job-44.odb,Step-1,Increment      1: Step Time =    1.000,"P-44-1",          1845,       156.653,       147.247,            0.,NA,NA,"",   1.05989E+06,   1.04333E+06,   1.04333E+06
C:/temp/Job-44.odb,Step-1,Increment      1: Step Time =    1.000,"P-44-1",          1846,       166.784,       111.031,            0.,NA,NA,"",   944.770E+03,   957.296E+03,   957.296E+03
C:/temp/Job-44.odb,Step-1,Increment      1: Step Time =    1.000,"P-44-1",          1847,       171.616,       45.6643,            0.,NA,NA,"",   1.02381E+06,   1.01978E+06,   1.01978E+06
C:/temp/Job-44.odb,Step-1,Increment      1: Step Time =    1.000,"P-44-1",          1848,       155.146,       81.2074,            0.,NA,NA,"",   974.781E+03,   968.631E+03,   968.631E+03
C:/temp/Job-44.odb,Step-1,Increment      1: Step Time =    1.000,"P-44-1",          1849,       169.057,       114.343,            0.,NA,NA,"",   958.600E+03,   970.295E+03,   970.295E+03
C:/temp/Job-44.odb,Step-1,Increment      1: Step Time =    1.000,"P-44-1",          1850,       166.037,       106.414,            0.,NA,NA,"",   930.347E+03,   945.339E+03,   945.339E+03
C:/temp/Job-44.odb,Step-1,Increment      1: Step Time =    1.000,"P-44-1",          1851,       36.8778,       31.3920,            0.,NA,NA,"",   1.04965E+06,   1.07185E+06,   1.07185E+06
C:/temp/Job-44.odb,Step-1,Increment      1: Step Time =    1.000,"P-44-1",          1852,       63.5381,       160.049,            0.,NA,NA,"",   1.07641E+06,   1.07826E+06,   1.07826E+06
C:/temp/Job-44.odb,Step-1,Increment      1: Step Time =    1.000,"P-44-1",          1853,       124.226,       56.0602,            0.,NA,NA,"",   1.13920E+06,   1.12513E+06,   1.12513E+06
C:/temp/Job-44.odb,Step-1,Increment      1: Step Time =    1.000,"P-44-1",          1854,       161.983,       101.921,            0.,NA,NA,"",   911.826E+03,   926.814E+03,   926.814E+03
C:/temp/Job-44.odb,Step-1,Increment      1: Step Time =    1.000,"P-44-1",          1855,       117.741,       164.982,            0.,NA,NA,"",   1.03273E+06,   1.04105E+06,   1.04105E+06
C:/temp/Job-44.odb,Step-1,Increment      1: Step Time =    1.000,"P-44-1",          1856,       166.120,       82.7569,            0.,NA,NA,"",   967.366E+03,   973.795E+03,   973.795E+03
C:/temp/Job-44.odb,Step-1,Increment      1: Step Time =    1.000,"P-44-1",          1857,       166.162,       55.4686,            0.,NA,NA,"",   1.03498E+06,   1.02668E+06,   1.02668E+06
C:/temp/Job-44.odb,Step-1,Increment      1: Step Time =    1.000,"P-44-1",          1858,       41.1933,       99.5375,            0.,NA,NA,"",   789.815E+03,   856.383E+03,   856.383E+03
C:/temp/Job-44.odb,Step-1,Increment      1: Step Time =    1.000,"P-44-1",          1859,       38.9565,       84.0873,            0.,NA,NA,"",   842.371E+03,   903.097E+03,   903.097E+03
C:/temp/Job-44.odb,Step-1,Increment      1: Step Time =    1.000,"P-44-1",          1860,       33.4412,       155.858,            0.,NA,NA,"",   1.00774E+06,   1.04733E+06,   1.04733E+06
C:/temp/Job-44.odb,Step-1,Increment      1: Step Time =    1.000,"P-44-1",          1861,       47.8346,       150.433,            0.,NA,NA,"",   1.04512E+06,   1.06183E+06,   1.06183E+06
C:/temp/Job-44.odb,Step-1,Increment      1: Step Time =    1.000,"P-44-1",          1862,       139.778,       148.859,            0.,NA,NA,"",   1.10338E+06,   1.07908E+06,   1.07908E+06
C:/temp/Job-44.odb,Step-1,Increment      1: Step Time =    1.000,"P-44-1",          1863,       51.5809,       139.448,            0.,NA,NA,"",   1.03786E+06,   1.05067E+06,   1.05067E+06
C:/temp/Job-44.odb,Step-1,Increment      1: Step Time =    1.000,"P-44-1",          1864,       26.5674,       158.209,            0.,NA,NA,"",   990.243E+03,   1.04348E+06,   1.04348E+06
C:/temp/Job-44.odb,Step-1,Increment      1: Step Time =    1.000,"P-44-1",          1865,       52.3348,       58.9582,            0.,NA,NA,"",   1.04617E+06,   1.05682E+06,   1.05682E+06
C:/temp/Job-44.odb,Step-1,Increment      1: Step Time =    1.000,"P-44-1",          1866,       126.765,       27.6774,            0.,NA,NA,"",   1.02441E+06,   1.02415E+06,   1.02415E+06
C:/temp/Job-44.odb,Step-1,Increment      1: Step Time =    1.000,"P-44-1",          1867,       123.441,       27.1202,            0.,NA,NA,"",   1.01846E+06,   1.02034E+06,   1.02034E+06
C:/temp/Job-44.odb,Step-1,Increment      1: Step Time =    1.000,"P-44-1",          1868,       119.291,       27.2947,            0.,NA,NA,"",   1.01409E+06,   1.01847E+06,   1.01847E+06
C:/temp/Job-44.odb,Step-1,Increment      1: Step Time =    1.000,"P-44-1",          1869,       41.2233,       71.3130,            0.,NA,NA,"",   925.739E+03,   970.081E+03,   970.081E+03
C:/temp/Job-44.odb,Step-1,Increment      1: Step Time =    1.000,"P-44-1",          1870,       88.3207,       37.3354,            0.,NA,NA,"",   1.03064E+06,   1.05018E+06,   1.05018E+06
C:/temp/Job-44.odb,Step-1,Increment      1: Step Time =    1.000,"P-44-1",          1871,       152.151,       132.249,            0.,NA,NA,"",   1.05902E+06,   1.03545E+06,   1.03545E+06
C:/temp/Job-44.odb,Step-1,Increment      1: Step Time =    1.000,"P-44-1",          1872,       28.0898,       114.143,            0.,NA,NA,"",   819.401E+03,   896.213E+03,   896.213E+03
C:/temp/Job-44.odb,Step-1,Increment      1: Step Time =    1.000,"P-44-1",          1873,       28.8640,       118.243,            0.,NA,NA,"",   835.348E+03,   909.213E+03,   909.213E+03
C:/temp/Job-44.odb,Step-1,Increment      1: Step Time =    1.000,"P-44-1",          1874,       46.8730,       133.945,            0.,NA,NA,"",   989.470E+03,   1.01570E+06,   1.01570E+06
C:/temp/Job-44.odb,Step-1,Increment      1: Step Time =    1.000,"P-44-1",          1875,       40.0839,       27.9083,            0.,NA,NA,"",   1.05904E+06,   1.07303E+06,   1.07303E+06
C:/temp/Job-44.odb,Step-1,Increment      1: Step Time =    1.000,"P-44-1",          1876,       135.171,       160.087,            0.,NA,NA,"",   1.07040E+06,   1.05902E+06,   1.05902E+06
C:/temp/Job-44.odb,Step-1,Increment      1: Step Time =    1.000,"P-44-1",          1877,       162.583,       82.4336,            0.,NA,NA,"",   968.386E+03,   971.377E+03,   971.377E+03
C:/temp/Job-44.odb,Step-1,Increment      1: Step Time =    1.000,"P-44-1",          1878,       155.607,       74.1669,            0.,NA,NA,"",   1.01808E+06,   1.00396E+06,   1.00396E+06
C:/temp/Job-44.odb,Step-1,Increment      1: Step Time =    1.000,"P-44-1",          1879,       27.1912,       126.065,            0.,NA,NA,"",   861.292E+03,   934.008E+03,   934.008E+03
C:/temp/Job-44.odb,Step-1,Increment      1: Step Time =    1.000,"P-44-1",          1880,       47.6890,       141.099,            0.,NA,NA,"",   1.02097E+06,   1.04172E+06,   1.04172E+06
C:/temp/Job-44.odb,Step-1,Increment      1: Step Time =    1.000,"P-44-1",          1881,       45.6860,       137.104,            0.,NA,NA,"",   996.695E+03,   1.02369E+06,   1.02369E+06
C:/temp/Job-44.odb,Step-1,Increment      1: Step Time =    1.000,"P-44-1",          1882,       27.9320,       141.347,            0.,NA,NA,"",   932.381E+03,   993.572E+03,   993.572E+03
C:/temp/Job-44.odb,Step-1,Increment      1: Step Time =    1.000,"P-44-1",          1883,       48.7440,       55.2378,            0.,NA,NA,"",   1.03686E+06,   1.05378E+06,   1.05378E+06
C:/temp/Job-44.odb,Step-1,Increment      1: Step Time =    1.000,"P-44-1",          1884,       37.7905,       149.813,            0.,NA,NA,"",   1.00541E+06,   1.04094E+06,   1.04094E+06
C:/temp/Job-44.odb,Step-1,Increment      1: Step Time =    1.000,"P-44-1",          1885,       119.334,       31.3426,            0.,NA,NA,"",   1.02481E+06,   1.03039E+06,   1.03039E+06
C:/temp/Job-44.odb,Step-1,Increment      1: Step Time =    1.000,"P-44-1",          1886,       115.223,       31.2899,            0.,NA,NA,"",   1.01895E+06,   1.02814E+06,   1.02814E+06
C:/temp/Job-44.odb,Step-1,Increment      1: Step Time =    1.000,"P-44-1",          1887,       48.3268,       50.8104,            0.,NA,NA,"",   1.04459E+06,   1.06063E+06,   1.06063E+06
C:/temp/Job-44.odb,Step-1,Increment      1: Step Time =    1.000,"P-44-1",          1888,       114.531,       34.5554,            0.,NA,NA,"",   1.02553E+06,   1.03748E+06,   1.03748E+06
C:/temp/Job-44.odb,Step-1,Increment      1: Step Time =    1.000,"P-44-1",          1889,       158.004,       82.7510,            0.,NA,NA,"",   964.860E+03,   963.151E+03,   963.151E+03
C:/temp/Job-44.odb,Step-1,Increment      1: Step Time =    1.000,"P-44-1",          1890,       153.829,       54.3267,            0.,NA,NA,"",   1.07005E+06,   1.05030E+06,   1.05030E+06
C:/temp/Job-44.odb,Step-1,Increment      1: Step Time =    1.000,"P-44-1",          1891,       157.522,       55.0573,            0.,NA,NA,"",   1.05850E+06,   1.04199E+06,   1.04199E+06
C:/temp/Job-44.odb,Step-1,Increment      1: Step Time =    1.000,"P-44-1",          1892,       139.045,       47.8262,            0.,NA,NA,"",   1.09283E+06,   1.07249E+06,   1.07249E+06
C:/temp/Job-44.odb,Step-1,Increment      1: Step Time =    1.000,"P-44-1",          1893,       88.6738,       33.1517,            0.,NA,NA,"",   1.02107E+06,   1.03703E+06,   1.03703E+06
C:/temp/Job-44.odb,Step-1,Increment      1: Step Time =    1.000,"P-44-1",          1894,       84.4386,       33.0338,            0.,NA,NA,"",   1.02822E+06,   1.04139E+06,   1.04139E+06
C:/temp/Job-44.odb,Step-1,Increment      1: Step Time =    1.000,"P-44-1",          1895,       65.2806,       33.7186,            0.,NA,NA,"",   1.06219E+06,   1.06420E+06,   1.06420E+06
C:/temp/Job-44.odb,Step-1,Increment      1: Step Time =    1.000,"P-44-1",          1896,       38.2792,       99.7240,            0.,NA,NA,"",   793.591E+03,   863.077E+03,   863.077E+03
C:/temp/Job-44.odb,Step-1,Increment      1: Step Time =    1.000,"P-44-1",          1897,       38.5161,       67.0601,            0.,NA,NA,"",   936.063E+03,   982.690E+03,   982.690E+03
C:/temp/Job-44.odb,Step-1,Increment      1: Step Time =    1.000,"P-44-1",          1898,       43.9228,       51.2441,            0.,NA,NA,"",   1.02594E+06,   1.05011E+06,   1.05011E+06
C:/temp/Job-44.odb,Step-1,Increment      1: Step Time =    1.000,"P-44-1",          1899,       158.118,       50.7916,            0.,NA,NA,"",   1.05594E+06,   1.04113E+06,   1.04113E+06
C:/temp/Job-44.odb,Step-1,Increment      1: Step Time =    1.000,"P-44-1",          1900,       143.983,       160.543,            0.,NA,NA,"",   1.06418E+06,   1.05014E+06,   1.05014E+06
C:/temp/Job-44.odb,Step-1,Increment      1: Step Time =    1.000,"P-44-1",          1901,       34.0469,       146.047,            0.,NA,NA,"",   975.572E+03,   1.02171E+06,   1.02171E+06
C:/temp/Job-44.odb,Step-1,Increment      1: Step Time =    1.000,"P-44-1",          1902,       58.7186,       39.2364,            0.,NA,NA,"",   1.07292E+06,   1.07583E+06,   1.07583E+06
C:/temp/Job-44.odb,Step-1,Increment      1: Step Time =    1.000,"P-44-1",          1903,       155.110,       51.4226,            0.,NA,NA,"",   1.06483E+06,   1.04740E+06,   1.04740E+06
C:/temp/Job-44.odb,Step-1,Increment      1: Step Time =    1.000,"P-44-1",          1904,       57.7128,       42.7302,            0.,NA,NA,"",   1.07510E+06,   1.07834E+06,   1.07834E+06
C:/temp/Job-44.odb,Step-1,Increment      1: Step Time =    1.000,"P-44-1",          1905,       41.9691,       138.709,            0.,NA,NA,"",   984.220E+03,   1.01848E+06,   1.01848E+06
