ODB Name,Step,Frame,Part Instance Name,    Node Label,X,Y,Z,Section Name,Material Name,Section Point,       S-Mises,S-Max. In-Plane Principal (Abs),S-Max. Principal (Abs)
C:/temp/Job-49.odb,Step-1,Increment      1: Step Time =    1.000,"P-49-1",             1,       85.2159,       159.181,            0.,NA,NA,"",   3.78119E+06,   3.82521E+06,   3.82521E+06
C:/temp/Job-49.odb,Step-1,Increment      1: Step Time =    1.000,"P-49-1",             2,       71.3134,       153.834,            0.,NA,NA,"",   1.41766E+06,   1.37281E+06,   1.37281E+06
C:/temp/Job-49.odb,Step-1,Increment      1: Step Time =    1.000,"P-49-1",             3,       59.1214,       145.276,            0.,NA,NA,"",   758.872E+03,  -721.986E+03,  -721.986E+03
C:/temp/Job-49.odb,Step-1,Increment      1: Step Time =    1.000,"P-49-1",             4,       49.3669,       134.019,            0.,NA,NA,"",   1.35571E+06,  -1.36926E+06,  -1.36926E+06
C:/temp/Job-49.odb,Step-1,Increment      1: Step Time =    1.000,"P-49-1",             5,       42.6316,       120.733,            0.,NA,NA,"",   1.12231E+06,  -1.14560E+06,  -1.14560E+06
C:/temp/Job-49.odb,Step-1,Increment      1: Step Time =    1.000,"P-49-1",             6,       39.3170,       106.211,            0.,NA,NA,"",   813.788E+03,  -830.801E+03,  -830.801E+03
C:/temp/Job-49.odb,Step-1,Increment      1: Step Time =    1.000,"P-49-1",             7,       39.6209,       91.3188,            0.,NA,NA,"",   837.291E+03,  -855.349E+03,  -855.349E+03
C:/temp/Job-49.odb,Step-1,Increment      1: Step Time =    1.000,"P-49-1",             8,       43.5250,       76.9440,            0.,NA,NA,"",   1.19915E+06,  -1.21258E+06,  -1.21258E+06
C:/temp/Job-49.odb,Step-1,Increment      1: Step Time =    1.000,"P-49-1",             9,       50.7967,       63.9440,            0.,NA,NA,"",   1.30807E+06,  -1.31866E+06,  -1.31866E+06
C:/temp/Job-49.odb,Step-1,Increment      1: Step Time =    1.000,"P-49-1",            10,       61.0022,       53.0940,            0.,NA,NA,"",   592.799E+03,  -526.822E+03,  -526.822E+03
C:/temp/Job-49.odb,Step-1,Increment      1: Step Time =    1.000,"P-49-1",            11,       73.5331,       45.0409,            0.,NA,NA,"",   1.67637E+06,   1.66859E+06,   1.66859E+06
C:/temp/Job-49.odb,Step-1,Increment      1: Step Time =    1.000,"P-49-1",            12,       87.6422,       40.2649,            0.,NA,NA,"",   3.99845E+06,   4.05274E+06,   4.05274E+06
C:/temp/Job-49.odb,Step-1,Increment      1: Step Time =    1.000,"P-49-1",            13,       102.488,       39.0508,            0.,NA,NA,"",   5.93325E+06,   6.01344E+06,   6.01344E+06
C:/temp/Job-49.odb,Step-1,Increment      1: Step Time =    1.000,"P-49-1",            14,       112.358,       40.2649,            0.,NA,NA,"",   6.10024E+06,   6.18003E+06,   6.18003E+06
C:/temp/Job-49.odb,Step-1,Increment      1: Step Time =    1.000,"P-49-1",            15,       126.467,       45.0409,            0.,NA,NA,"",   4.88823E+06,    4.9826E+06,    4.9826E+06
C:/temp/Job-49.odb,Step-1,Increment      1: Step Time =    1.000,"P-49-1",            16,       138.998,       53.0940,            0.,NA,NA,"",   3.09775E+06,   3.14988E+06,   3.14988E+06
C:/temp/Job-49.odb,Step-1,Increment      1: Step Time =    1.000,"P-49-1",            17,       149.203,       63.9440,            0.,NA,NA,"",   1.23338E+06,   1.15730E+06,   1.15730E+06
C:/temp/Job-49.odb,Step-1,Increment      1: Step Time =    1.000,"P-49-1",            18,       156.475,       76.9440,            0.,NA,NA,"",   1.41777E+06,  -1.38976E+06,  -1.38976E+06
C:/temp/Job-49.odb,Step-1,Increment      1: Step Time =    1.000,"P-49-1",            19,       160.379,       91.3188,            0.,NA,NA,"",   3.06574E+06,  -3.09667E+06,  -3.09667E+06
C:/temp/Job-49.odb,Step-1,Increment      1: Step Time =    1.000,"P-49-1",            20,       160.683,       106.211,            0.,NA,NA,"",   3.09048E+06,  -3.11790E+06,  -3.11790E+06
C:/temp/Job-49.odb,Step-1,Increment      1: Step Time =    1.000,"P-49-1",            21,       157.368,       120.733,            0.,NA,NA,"",   1.62711E+06,  -1.62481E+06,  -1.62481E+06
C:/temp/Job-49.odb,Step-1,Increment      1: Step Time =    1.000,"P-49-1",            22,       150.633,       134.019,            0.,NA,NA,"",   951.830E+03,   867.671E+03,   867.671E+03
C:/temp/Job-49.odb,Step-1,Increment      1: Step Time =    1.000,"P-49-1",            23,       140.879,       145.276,            0.,NA,NA,"",   2.87338E+06,   2.89774E+06,   2.89774E+06
C:/temp/Job-49.odb,Step-1,Increment      1: Step Time =    1.000,"P-49-1",            24,       128.687,       153.834,            0.,NA,NA,"",   4.75518E+06,   4.82877E+06,   4.82877E+06
C:/temp/Job-49.odb,Step-1,Increment      1: Step Time =    1.000,"P-49-1",            25,       114.784,       159.181,            0.,NA,NA,"",   5.95114E+06,   6.04026E+06,   6.04026E+06
C:/temp/Job-49.odb,Step-1,Increment      1: Step Time =    1.000,"P-49-1",            26,          100.,          161.,            0.,NA,NA,"",   5.68531E+06,   5.76165E+06,   5.76165E+06
C:/temp/Job-49.odb,Step-1,Increment      1: Step Time =    1.000,"P-49-1",            27,          190.,            0.,            0.,NA,NA,"",   971.331E+03,   970.094E+03,   970.094E+03
C:/temp/Job-49.odb,Step-1,Increment      1: Step Time =    1.000,"P-49-1",            28,          180.,            0.,            0.,NA,NA,"",   907.741E+03,   906.840E+03,   906.840E+03
C:/temp/Job-49.odb,Step-1,Increment      1: Step Time =    1.000,"P-49-1",            29,          170.,            0.,            0.,NA,NA,"",   811.501E+03,   809.191E+03,   809.191E+03
C:/temp/Job-49.odb,Step-1,Increment      1: Step Time =    1.000,"P-49-1",            30,          160.,            0.,            0.,NA,NA,"",   659.346E+03,   655.298E+03,   655.298E+03
C:/temp/Job-49.odb,Step-1,Increment      1: Step Time =    1.000,"P-49-1",            31,          150.,            0.,            0.,NA,NA,"",   424.460E+03,   416.176E+03,   416.176E+03
C:/temp/Job-49.odb,Step-1,Increment      1: Step Time =    1.000,"P-49-1",            32,          140.,            0.,            0.,NA,NA,"",   186.115E+03,   158.394E+03,   158.394E+03
C:/temp/Job-49.odb,Step-1,Increment      1: Step Time =    1.000,"P-49-1",            33,          130.,            0.,            0.,NA,NA,"",   203.915E+03,  -186.726E+03,  -186.726E+03
C:/temp/Job-49.odb,Step-1,Increment      1: Step Time =    1.000,"P-49-1",            34,          120.,            0.,            0.,NA,NA,"",   348.385E+03,  -340.754E+03,  -340.754E+03
C:/temp/Job-49.odb,Step-1,Increment      1: Step Time =    1.000,"P-49-1",            35,          110.,            0.,            0.,NA,NA,"",   303.000E+03,  -290.460E+03,  -290.460E+03
C:/temp/Job-49.odb,Step-1,Increment      1: Step Time =    1.000,"P-49-1",            36,          100.,            0.,            0.,NA,NA,"",   244.997E+03,   79.1801E+03,   79.1801E+03
C:/temp/Job-49.odb,Step-1,Increment      1: Step Time =    1.000,"P-49-1",            37,           90.,            0.,            0.,NA,NA,"",   754.417E+03,   738.126E+03,   738.126E+03
C:/temp/Job-49.odb,Step-1,Increment      1: Step Time =    1.000,"P-49-1",            38,           80.,            0.,            0.,NA,NA,"",   1.46295E+06,   1.44863E+06,   1.44863E+06
C:/temp/Job-49.odb,Step-1,Increment      1: Step Time =    1.000,"P-49-1",            39,           70.,            0.,            0.,NA,NA,"",   2.14587E+06,   2.13553E+06,   2.13553E+06
C:/temp/Job-49.odb,Step-1,Increment      1: Step Time =    1.000,"P-49-1",            40,           60.,            0.,            0.,NA,NA,"",   2.69657E+06,   2.68917E+06,   2.68917E+06
C:/temp/Job-49.odb,Step-1,Increment      1: Step Time =    1.000,"P-49-1",            41,           50.,            0.,            0.,NA,NA,"",   3.05374E+06,   3.04821E+06,   3.04821E+06
C:/temp/Job-49.odb,Step-1,Increment      1: Step Time =    1.000,"P-49-1",            42,           40.,            0.,            0.,NA,NA,"",   3.25274E+06,   3.24816E+06,   3.24816E+06
C:/temp/Job-49.odb,Step-1,Increment      1: Step Time =    1.000,"P-49-1",            43,           30.,            0.,            0.,NA,NA,"",   3.32528E+06,   3.32248E+06,   3.32248E+06
C:/temp/Job-49.odb,Step-1,Increment      1: Step Time =    1.000,"P-49-1",            44,           20.,            0.,            0.,NA,NA,"",   3.33646E+06,   3.33457E+06,   3.33457E+06
C:/temp/Job-49.odb,Step-1,Increment      1: Step Time =    1.000,"P-49-1",            45,           10.,            0.,            0.,NA,NA,"",   3.41328E+06,   3.41469E+06,   3.41469E+06
C:/temp/Job-49.odb,Step-1,Increment      1: Step Time =    1.000,"P-49-1",            46,          200.,            0.,            0.,NA,NA,"",   998.121E+03,   996.197E+03,   996.197E+03
C:/temp/Job-49.odb,Step-1,Increment      1: Step Time =    1.000,"P-49-1",            47,            0.,            0.,            0.,NA,NA,"",   3.86145E+06,   4.05625E+06,   4.05625E+06
C:/temp/Job-49.odb,Step-1,Increment      1: Step Time =    1.000,"P-49-1",            48,          200.,          190.,            0.,NA,NA,"",   1.01376E+06,   999.080E+03,   999.080E+03
C:/temp/Job-49.odb,Step-1,Increment      1: Step Time =    1.000,"P-49-1",            49,          200.,          180.,            0.,NA,NA,"",   1.03856E+06,   1.00558E+06,   1.00558E+06
C:/temp/Job-49.odb,Step-1,Increment      1: Step Time =    1.000,"P-49-1",            50,          200.,          170.,            0.,NA,NA,"",   1.02064E+06,   1.01593E+06,   1.01593E+06
C:/temp/Job-49.odb,Step-1,Increment      1: Step Time =    1.000,"P-49-1",            51,          200.,          160.,            0.,NA,NA,"",   935.750E+03,   1.02088E+06,   1.02088E+06
C:/temp/Job-49.odb,Step-1,Increment      1: Step Time =    1.000,"P-49-1",            52,          200.,          150.,            0.,NA,NA,"",   928.459E+03,   1.05952E+06,   1.05952E+06
C:/temp/Job-49.odb,Step-1,Increment      1: Step Time =    1.000,"P-49-1",            53,          200.,          140.,            0.,NA,NA,"",   1.25356E+06,   1.42191E+06,   1.42191E+06
C:/temp/Job-49.odb,Step-1,Increment      1: Step Time =    1.000,"P-49-1",            54,          200.,          130.,            0.,NA,NA,"",   1.89050E+06,   2.17576E+06,   2.17576E+06
C:/temp/Job-49.odb,Step-1,Increment      1: Step Time =    1.000,"P-49-1",            55,          200.,          120.,            0.,NA,NA,"",   2.59208E+06,   2.93819E+06,   2.93819E+06
C:/temp/Job-49.odb,Step-1,Increment      1: Step Time =    1.000,"P-49-1",            56,          200.,          110.,            0.,NA,NA,"",   3.12380E+06,   3.49362E+06,   3.49362E+06
C:/temp/Job-49.odb,Step-1,Increment      1: Step Time =    1.000,"P-49-1",            57,          200.,          100.,            0.,NA,NA,"",   3.29769E+06,   3.67362E+06,   3.67362E+06
C:/temp/Job-49.odb,Step-1,Increment      1: Step Time =    1.000,"P-49-1",            58,          200.,           90.,            0.,NA,NA,"",   3.08420E+06,   3.45198E+06,   3.45198E+06
C:/temp/Job-49.odb,Step-1,Increment      1: Step Time =    1.000,"P-49-1",            59,          200.,           80.,            0.,NA,NA,"",   2.55721E+06,   2.89940E+06,   2.89940E+06
C:/temp/Job-49.odb,Step-1,Increment      1: Step Time =    1.000,"P-49-1",            60,          200.,           70.,            0.,NA,NA,"",   1.87115E+06,   2.15427E+06,   2.15427E+06
C:/temp/Job-49.odb,Step-1,Increment      1: Step Time =    1.000,"P-49-1",            61,          200.,           60.,            0.,NA,NA,"",   1.24460E+06,   1.41329E+06,   1.41329E+06
C:/temp/Job-49.odb,Step-1,Increment      1: Step Time =    1.000,"P-49-1",            62,          200.,           50.,            0.,NA,NA,"",   928.980E+03,   1.06192E+06,   1.06192E+06
C:/temp/Job-49.odb,Step-1,Increment      1: Step Time =    1.000,"P-49-1",            63,          200.,           40.,            0.,NA,NA,"",   938.001E+03,   1.02013E+06,   1.02013E+06
C:/temp/Job-49.odb,Step-1,Increment      1: Step Time =    1.000,"P-49-1",            64,          200.,           30.,            0.,NA,NA,"",   1.01904E+06,   1.01182E+06,   1.01182E+06
C:/temp/Job-49.odb,Step-1,Increment      1: Step Time =    1.000,"P-49-1",            65,          200.,           20.,            0.,NA,NA,"",   1.03723E+06,   1.00588E+06,   1.00588E+06
C:/temp/Job-49.odb,Step-1,Increment      1: Step Time =    1.000,"P-49-1",            66,          200.,           10.,            0.,NA,NA,"",   1.01370E+06,   999.251E+03,   999.251E+03
C:/temp/Job-49.odb,Step-1,Increment      1: Step Time =    1.000,"P-49-1",            67,          200.,          200.,            0.,NA,NA,"",   998.193E+03,   996.338E+03,   996.338E+03
C:/temp/Job-49.odb,Step-1,Increment      1: Step Time =    1.000,"P-49-1",            68,           10.,          200.,            0.,NA,NA,"",   3.41222E+06,   3.41421E+06,   3.41421E+06
C:/temp/Job-49.odb,Step-1,Increment      1: Step Time =    1.000,"P-49-1",            69,           20.,          200.,            0.,NA,NA,"",   3.32995E+06,   3.32912E+06,   3.32912E+06
C:/temp/Job-49.odb,Step-1,Increment      1: Step Time =    1.000,"P-49-1",            70,           30.,          200.,            0.,NA,NA,"",   3.31672E+06,   3.31333E+06,   3.31333E+06
C:/temp/Job-49.odb,Step-1,Increment      1: Step Time =    1.000,"P-49-1",            71,           40.,          200.,            0.,NA,NA,"",   3.24817E+06,   3.24377E+06,   3.24377E+06
C:/temp/Job-49.odb,Step-1,Increment      1: Step Time =    1.000,"P-49-1",            72,           50.,          200.,            0.,NA,NA,"",   3.06051E+06,   3.05592E+06,   3.05592E+06
C:/temp/Job-49.odb,Step-1,Increment      1: Step Time =    1.000,"P-49-1",            73,           60.,          200.,            0.,NA,NA,"",   2.69843E+06,   2.69024E+06,   2.69024E+06
C:/temp/Job-49.odb,Step-1,Increment      1: Step Time =    1.000,"P-49-1",            74,           70.,          200.,            0.,NA,NA,"",   2.15582E+06,   2.14408E+06,   2.14408E+06
C:/temp/Job-49.odb,Step-1,Increment      1: Step Time =    1.000,"P-49-1",            75,           80.,          200.,            0.,NA,NA,"",   1.47969E+06,   1.46581E+06,   1.46581E+06
C:/temp/Job-49.odb,Step-1,Increment      1: Step Time =    1.000,"P-49-1",            76,           90.,          200.,            0.,NA,NA,"",   788.871E+03,   769.853E+03,   769.853E+03
C:/temp/Job-49.odb,Step-1,Increment      1: Step Time =    1.000,"P-49-1",            77,          100.,          200.,            0.,NA,NA,"",   276.096E+03,   226.600E+03,   226.600E+03
C:/temp/Job-49.odb,Step-1,Increment      1: Step Time =    1.000,"P-49-1",            78,          110.,          200.,            0.,NA,NA,"",   264.640E+03,  -243.994E+03,  -243.994E+03
C:/temp/Job-49.odb,Step-1,Increment      1: Step Time =    1.000,"P-49-1",            79,          120.,          200.,            0.,NA,NA,"",   326.146E+03,  -316.551E+03,  -316.551E+03
C:/temp/Job-49.odb,Step-1,Increment      1: Step Time =    1.000,"P-49-1",            80,          130.,          200.,            0.,NA,NA,"",   201.640E+03,  -183.587E+03,  -183.587E+03
C:/temp/Job-49.odb,Step-1,Increment      1: Step Time =    1.000,"P-49-1",            81,          140.,          200.,            0.,NA,NA,"",   179.083E+03,   154.992E+03,   154.992E+03
C:/temp/Job-49.odb,Step-1,Increment      1: Step Time =    1.000,"P-49-1",            82,          150.,          200.,            0.,NA,NA,"",   430.881E+03,   422.489E+03,   422.489E+03
C:/temp/Job-49.odb,Step-1,Increment      1: Step Time =    1.000,"P-49-1",            83,          160.,          200.,            0.,NA,NA,"",   657.969E+03,   653.688E+03,   653.688E+03
C:/temp/Job-49.odb,Step-1,Increment      1: Step Time =    1.000,"P-49-1",            84,          170.,          200.,            0.,NA,NA,"",   811.070E+03,   808.830E+03,   808.830E+03
C:/temp/Job-49.odb,Step-1,Increment      1: Step Time =    1.000,"P-49-1",            85,          180.,          200.,            0.,NA,NA,"",   906.607E+03,   905.319E+03,   905.319E+03
C:/temp/Job-49.odb,Step-1,Increment      1: Step Time =    1.000,"P-49-1",            86,          190.,          200.,            0.,NA,NA,"",   970.749E+03,   969.403E+03,   969.403E+03
C:/temp/Job-49.odb,Step-1,Increment      1: Step Time =    1.000,"P-49-1",            87,            0.,          200.,            0.,NA,NA,"",   3.85347E+06,   4.04765E+06,   4.04765E+06
C:/temp/Job-49.odb,Step-1,Increment      1: Step Time =    1.000,"P-49-1",            88,            0.,           10.,            0.,NA,NA,"",   2.70470E+06,   2.97214E+06,   2.97214E+06
C:/temp/Job-49.odb,Step-1,Increment      1: Step Time =    1.000,"P-49-1",            89,            0.,           20.,            0.,NA,NA,"",   2.01904E+06,   2.24745E+06,   2.24745E+06
C:/temp/Job-49.odb,Step-1,Increment      1: Step Time =    1.000,"P-49-1",            90,            0.,           30.,            0.,NA,NA,"",   1.47018E+06,   1.64362E+06,   1.64362E+06
C:/temp/Job-49.odb,Step-1,Increment      1: Step Time =    1.000,"P-49-1",            91,            0.,           40.,            0.,NA,NA,"",   997.888E+03,   1.11586E+06,   1.11586E+06
C:/temp/Job-49.odb,Step-1,Increment      1: Step Time =    1.000,"P-49-1",            92,            0.,           50.,            0.,NA,NA,"",   593.296E+03,   658.620E+03,   658.620E+03
C:/temp/Job-49.odb,Step-1,Increment      1: Step Time =    1.000,"P-49-1",            93,            0.,           60.,            0.,NA,NA,"",   267.825E+03,   281.672E+03,   281.672E+03
C:/temp/Job-49.odb,Step-1,Increment      1: Step Time =    1.000,"P-49-1",            94,            0.,           70.,            0.,NA,NA,"",   131.984E+03,  -34.4948E+03,  -34.4948E+03
C:/temp/Job-49.odb,Step-1,Increment      1: Step Time =    1.000,"P-49-1",            95,            0.,           80.,            0.,NA,NA,"",   220.583E+03,  -244.328E+03,  -244.328E+03
C:/temp/Job-49.odb,Step-1,Increment      1: Step Time =    1.000,"P-49-1",            96,            0.,           90.,            0.,NA,NA,"",   290.000E+03,  -327.105E+03,  -327.105E+03
C:/temp/Job-49.odb,Step-1,Increment      1: Step Time =    1.000,"P-49-1",            97,            0.,          100.,            0.,NA,NA,"",   309.744E+03,  -350.638E+03,  -350.638E+03
C:/temp/Job-49.odb,Step-1,Increment      1: Step Time =    1.000,"P-49-1",            98,            0.,          110.,            0.,NA,NA,"",   290.996E+03,  -328.761E+03,  -328.761E+03
C:/temp/Job-49.odb,Step-1,Increment      1: Step Time =    1.000,"P-49-1",            99,            0.,          120.,            0.,NA,NA,"",   222.540E+03,  -245.976E+03,  -245.976E+03
C:/temp/Job-49.odb,Step-1,Increment      1: Step Time =    1.000,"P-49-1",           100,            0.,          130.,            0.,NA,NA,"",   134.096E+03,  -28.4896E+03,  -28.4896E+03
C:/temp/Job-49.odb,Step-1,Increment      1: Step Time =    1.000,"P-49-1",           101,            0.,          140.,            0.,NA,NA,"",   277.204E+03,   295.474E+03,   295.474E+03
C:/temp/Job-49.odb,Step-1,Increment      1: Step Time =    1.000,"P-49-1",           102,            0.,          150.,            0.,NA,NA,"",   606.889E+03,   674.553E+03,   674.553E+03
C:/temp/Job-49.odb,Step-1,Increment      1: Step Time =    1.000,"P-49-1",           103,            0.,          160.,            0.,NA,NA,"",   1.01296E+06,   1.13399E+06,   1.13399E+06
C:/temp/Job-49.odb,Step-1,Increment      1: Step Time =    1.000,"P-49-1",           104,            0.,          170.,            0.,NA,NA,"",   1.48192E+06,   1.66034E+06,   1.66034E+06
C:/temp/Job-49.odb,Step-1,Increment      1: Step Time =    1.000,"P-49-1",           105,            0.,          180.,            0.,NA,NA,"",   2.02142E+06,   2.25518E+06,   2.25518E+06
C:/temp/Job-49.odb,Step-1,Increment      1: Step Time =    1.000,"P-49-1",           106,            0.,          190.,            0.,NA,NA,"",   2.69818E+06,   2.96941E+06,   2.96941E+06
C:/temp/Job-49.odb,Step-1,Increment      1: Step Time =    1.000,"P-49-1",           107,       103.260,       30.1445,            0.,NA,NA,"",   4.05969E+06,   4.22882E+06,   4.22882E+06
C:/temp/Job-49.odb,Step-1,Increment      1: Step Time =    1.000,"P-49-1",           108,       190.531,       31.0994,            0.,NA,NA,"",   1.08008E+06,   1.09996E+06,   1.09996E+06
C:/temp/Job-49.odb,Step-1,Increment      1: Step Time =    1.000,"P-49-1",           109,       170.227,       105.203,            0.,NA,NA,"",   1.38454E+06,  -1.37743E+06,  -1.37743E+06
C:/temp/Job-49.odb,Step-1,Increment      1: Step Time =    1.000,"P-49-1",           110,       30.0336,       95.5858,            0.,NA,NA,"",   549.549E+03,  -604.224E+03,  -604.224E+03
C:/temp/Job-49.odb,Step-1,Increment      1: Step Time =    1.000,"P-49-1",           111,       190.211,       169.702,            0.,NA,NA,"",   1.08497E+06,   1.10109E+06,   1.10109E+06
C:/temp/Job-49.odb,Step-1,Increment      1: Step Time =    1.000,"P-49-1",           112,       178.442,       170.883,            0.,NA,NA,"",   1.35086E+06,   1.31716E+06,   1.31716E+06
C:/temp/Job-49.odb,Step-1,Increment      1: Step Time =    1.000,"P-49-1",           113,       168.838,       170.227,            0.,NA,NA,"",   1.64452E+06,   1.55388E+06,   1.55388E+06
C:/temp/Job-49.odb,Step-1,Increment      1: Step Time =    1.000,"P-49-1",           114,       157.836,       169.835,            0.,NA,NA,"",   1.95438E+06,   1.85239E+06,   1.85239E+06
C:/temp/Job-49.odb,Step-1,Increment      1: Step Time =    1.000,"P-49-1",           115,       148.986,       167.204,            0.,NA,NA,"",   2.30153E+06,   2.24632E+06,   2.24632E+06
C:/temp/Job-49.odb,Step-1,Increment      1: Step Time =    1.000,"P-49-1",           116,       139.029,       168.666,            0.,NA,NA,"",   2.50631E+06,   2.57066E+06,   2.57066E+06
C:/temp/Job-49.odb,Step-1,Increment      1: Step Time =    1.000,"P-49-1",           117,       126.942,       170.490,            0.,NA,NA,"",   2.94673E+06,   3.11441E+06,   3.11441E+06
C:/temp/Job-49.odb,Step-1,Increment      1: Step Time =    1.000,"P-49-1",           118,       117.147,       167.789,            0.,NA,NA,"",   4.02360E+06,   4.22246E+06,   4.22246E+06
C:/temp/Job-49.odb,Step-1,Increment      1: Step Time =    1.000,"P-49-1",           119,       105.587,       169.757,            0.,NA,NA,"",   4.04203E+06,   4.22224E+06,   4.22224E+06
C:/temp/Job-49.odb,Step-1,Increment      1: Step Time =    1.000,"P-49-1",           120,       94.5987,       169.369,            0.,NA,NA,"",   3.84385E+06,   3.95682E+06,   3.95682E+06
C:/temp/Job-49.odb,Step-1,Increment      1: Step Time =    1.000,"P-49-1",           121,       83.6396,       168.105,            0.,NA,NA,"",   3.26222E+06,   3.26445E+06,   3.26445E+06
C:/temp/Job-49.odb,Step-1,Increment      1: Step Time =    1.000,"P-49-1",           122,       72.6867,       168.725,            0.,NA,NA,"",   2.74000E+06,   2.55169E+06,   2.55169E+06
C:/temp/Job-49.odb,Step-1,Increment      1: Step Time =    1.000,"P-49-1",           123,       63.7233,       172.118,            0.,NA,NA,"",   2.62739E+06,   2.36294E+06,   2.36294E+06
C:/temp/Job-49.odb,Step-1,Increment      1: Step Time =    1.000,"P-49-1",           124,       53.3344,       169.574,            0.,NA,NA,"",   2.28461E+06,   2.01919E+06,   2.01919E+06
C:/temp/Job-49.odb,Step-1,Increment      1: Step Time =    1.000,"P-49-1",           125,       38.1670,       171.437,            0.,NA,NA,"",   2.07218E+06,   1.94269E+06,   1.94269E+06
C:/temp/Job-49.odb,Step-1,Increment      1: Step Time =    1.000,"P-49-1",           126,       29.9788,       169.904,            0.,NA,NA,"",   1.86868E+06,   1.81171E+06,   1.81171E+06
C:/temp/Job-49.odb,Step-1,Increment      1: Step Time =    1.000,"P-49-1",           127,       21.9797,       167.244,            0.,NA,NA,"",   1.61294E+06,   1.63339E+06,   1.63339E+06
C:/temp/Job-49.odb,Step-1,Increment      1: Step Time =    1.000,"P-49-1",           128,       9.19354,       169.985,            0.,NA,NA,"",   1.58545E+06,   1.71873E+06,   1.71873E+06
C:/temp/Job-49.odb,Step-1,Increment      1: Step Time =    1.000,"P-49-1",           129,       9.43183,       160.397,            0.,NA,NA,"",   1.06984E+06,   1.17020E+06,   1.17020E+06
C:/temp/Job-49.odb,Step-1,Increment      1: Step Time =    1.000,"P-49-1",           130,       19.1972,       156.472,            0.,NA,NA,"",   947.634E+03,   980.069E+03,   980.069E+03
C:/temp/Job-49.odb,Step-1,Increment      1: Step Time =    1.000,"P-49-1",           131,       30.9163,       154.469,            0.,NA,NA,"",   983.906E+03,   889.598E+03,   889.598E+03
C:/temp/Job-49.odb,Step-1,Increment      1: Step Time =    1.000,"P-49-1",           132,       41.8574,       155.104,            0.,NA,NA,"",   1.19277E+06,   936.983E+03,   936.983E+03
C:/temp/Job-49.odb,Step-1,Increment      1: Step Time =    1.000,"P-49-1",           133,       50.6992,       160.255,            0.,NA,NA,"",   1.67421E+06,   1.36449E+06,   1.36449E+06
C:/temp/Job-49.odb,Step-1,Increment      1: Step Time =    1.000,"P-49-1",           134,       63.0648,       162.750,            0.,NA,NA,"",   2.07499E+06,   1.81214E+06,   1.81214E+06
C:/temp/Job-49.odb,Step-1,Increment      1: Step Time =    1.000,"P-49-1",           135,       137.617,       158.701,            0.,NA,NA,"",   3.23485E+06,   3.33048E+06,   3.33048E+06
C:/temp/Job-49.odb,Step-1,Increment      1: Step Time =    1.000,"P-49-1",           136,       148.212,       157.428,            0.,NA,NA,"",   2.57272E+06,   2.51820E+06,   2.51820E+06
C:/temp/Job-49.odb,Step-1,Increment      1: Step Time =    1.000,"P-49-1",           137,       157.991,       158.136,            0.,NA,NA,"",   2.30670E+06,   2.13133E+06,   2.13133E+06
C:/temp/Job-49.odb,Step-1,Increment      1: Step Time =    1.000,"P-49-1",           138,       168.578,       160.057,            0.,NA,NA,"",   1.95643E+06,   1.79024E+06,   1.79024E+06
C:/temp/Job-49.odb,Step-1,Increment      1: Step Time =    1.000,"P-49-1",           139,       179.361,       155.161,            0.,NA,NA,"",   1.68195E+06,   1.58761E+06,   1.58761E+06
C:/temp/Job-49.odb,Step-1,Increment      1: Step Time =    1.000,"P-49-1",           140,       188.391,       158.467,            0.,NA,NA,"",   1.22958E+06,   1.27089E+06,   1.27089E+06
C:/temp/Job-49.odb,Step-1,Increment      1: Step Time =    1.000,"P-49-1",           141,       147.813,       145.983,            0.,NA,NA,"",   2.27872E+06,   2.24182E+06,   2.24182E+06
C:/temp/Job-49.odb,Step-1,Increment      1: Step Time =    1.000,"P-49-1",           142,       159.153,       148.174,            0.,NA,NA,"",   2.25967E+06,   1.98393E+06,   1.98393E+06
C:/temp/Job-49.odb,Step-1,Increment      1: Step Time =    1.000,"P-49-1",           143,       169.239,       148.491,            0.,NA,NA,"",   2.15944E+06,   1.85531E+06,   1.85531E+06
C:/temp/Job-49.odb,Step-1,Increment      1: Step Time =    1.000,"P-49-1",           144,       178.367,       144.137,            0.,NA,NA,"",   1.93994E+06,   1.74876E+06,   1.74876E+06
C:/temp/Job-49.odb,Step-1,Increment      1: Step Time =    1.000,"P-49-1",           145,       187.133,       148.517,            0.,NA,NA,"",   1.43437E+06,   1.48273E+06,   1.48273E+06
C:/temp/Job-49.odb,Step-1,Increment      1: Step Time =    1.000,"P-49-1",           146,       159.754,       138.259,            0.,NA,NA,"",   1.85141E+06,   1.45355E+06,   1.45355E+06
C:/temp/Job-49.odb,Step-1,Increment      1: Step Time =    1.000,"P-49-1",           147,       169.342,       134.778,            0.,NA,NA,"",   2.09188E+06,   1.55233E+06,   1.55233E+06
C:/temp/Job-49.odb,Step-1,Increment      1: Step Time =    1.000,"P-49-1",           148,       182.406,       135.096,            0.,NA,NA,"",   1.85049E+06,   1.76234E+06,   1.76234E+06
C:/temp/Job-49.odb,Step-1,Increment      1: Step Time =    1.000,"P-49-1",           149,       190.921,       134.843,            0.,NA,NA,"",   1.57938E+06,   1.75215E+06,   1.75215E+06
C:/temp/Job-49.odb,Step-1,Increment      1: Step Time =    1.000,"P-49-1",           150,       169.023,       127.998,            0.,NA,NA,"",   1.84583E+06,   146.995E+03,   146.995E+03
C:/temp/Job-49.odb,Step-1,Increment      1: Step Time =    1.000,"P-49-1",           151,       179.810,       124.934,            0.,NA,NA,"",   1.73026E+06,   1.55044E+06,   1.55044E+06
C:/temp/Job-49.odb,Step-1,Increment      1: Step Time =    1.000,"P-49-1",           152,       190.449,       125.129,            0.,NA,NA,"",   1.82232E+06,   2.02838E+06,   2.02838E+06
C:/temp/Job-49.odb,Step-1,Increment      1: Step Time =    1.000,"P-49-1",           153,       171.275,       116.888,            0.,NA,NA,"",   1.42429E+06,  -639.340E+03,  -639.340E+03
C:/temp/Job-49.odb,Step-1,Increment      1: Step Time =    1.000,"P-49-1",           154,       179.488,       116.369,            0.,NA,NA,"",   1.34205E+06,   1.19329E+06,   1.19329E+06
C:/temp/Job-49.odb,Step-1,Increment      1: Step Time =    1.000,"P-49-1",           155,       190.164,       115.471,            0.,NA,NA,"",   1.92815E+06,   2.17106E+06,   2.17106E+06
C:/temp/Job-49.odb,Step-1,Increment      1: Step Time =    1.000,"P-49-1",           156,       178.985,       104.996,            0.,NA,NA,"",   630.736E+03,   618.342E+03,   618.342E+03
C:/temp/Job-49.odb,Step-1,Increment      1: Step Time =    1.000,"P-49-1",           157,       189.549,       105.660,            0.,NA,NA,"",   1.87450E+06,   2.12903E+06,   2.12903E+06
C:/temp/Job-49.odb,Step-1,Increment      1: Step Time =    1.000,"P-49-1",           158,       169.911,       84.6628,            0.,NA,NA,"",   1.46105E+06,  -883.551E+03,  -883.551E+03
C:/temp/Job-49.odb,Step-1,Increment      1: Step Time =    1.000,"P-49-1",           159,       177.247,       82.6706,            0.,NA,NA,"",   1.36936E+06,   1.06818E+06,   1.06818E+06
C:/temp/Job-49.odb,Step-1,Increment      1: Step Time =    1.000,"P-49-1",           160,       188.919,       84.8266,            0.,NA,NA,"",   1.82092E+06,   2.03659E+06,   2.03659E+06
C:/temp/Job-49.odb,Step-1,Increment      1: Step Time =    1.000,"P-49-1",           161,       189.440,       95.2999,            0.,NA,NA,"",   1.85027E+06,   2.10549E+06,   2.10549E+06
C:/temp/Job-49.odb,Step-1,Increment      1: Step Time =    1.000,"P-49-1",           162,       179.568,       95.6260,            0.,NA,NA,"",   643.497E+03,   660.543E+03,   660.543E+03
C:/temp/Job-49.odb,Step-1,Increment      1: Step Time =    1.000,"P-49-1",           163,       169.824,       95.5831,            0.,NA,NA,"",   1.49535E+06,  -1.50234E+06,  -1.50234E+06
C:/temp/Job-49.odb,Step-1,Increment      1: Step Time =    1.000,"P-49-1",           164,       159.157,       70.7445,            0.,NA,NA,"",   1.20315E+06,  -385.787E+03,  -385.787E+03
C:/temp/Job-49.odb,Step-1,Increment      1: Step Time =    1.000,"P-49-1",           165,       171.399,       70.2835,            0.,NA,NA,"",   1.96572E+06,   1.37153E+06,   1.37153E+06
C:/temp/Job-49.odb,Step-1,Increment      1: Step Time =    1.000,"P-49-1",           166,       179.111,       73.0591,            0.,NA,NA,"",   1.80077E+06,   1.58405E+06,   1.58405E+06
C:/temp/Job-49.odb,Step-1,Increment      1: Step Time =    1.000,"P-49-1",           167,       189.434,       74.5420,            0.,NA,NA,"",   1.78426E+06,   1.96015E+06,   1.96015E+06
C:/temp/Job-49.odb,Step-1,Increment      1: Step Time =    1.000,"P-49-1",           168,       160.305,       58.9915,            0.,NA,NA,"",   2.03770E+06,   1.66007E+06,   1.66007E+06
C:/temp/Job-49.odb,Step-1,Increment      1: Step Time =    1.000,"P-49-1",           169,       169.827,       62.0890,            0.,NA,NA,"",   2.12837E+06,   1.66420E+06,   1.66420E+06
C:/temp/Job-49.odb,Step-1,Increment      1: Step Time =    1.000,"P-49-1",           170,       179.317,       62.8241,            0.,NA,NA,"",   1.94259E+06,   1.74124E+06,   1.74124E+06
C:/temp/Job-49.odb,Step-1,Increment      1: Step Time =    1.000,"P-49-1",           171,       190.107,       64.6240,            0.,NA,NA,"",   1.58367E+06,   1.73737E+06,   1.73737E+06
C:/temp/Job-49.odb,Step-1,Increment      1: Step Time =    1.000,"P-49-1",           172,       145.959,       53.3918,            0.,NA,NA,"",   2.43401E+06,   2.43232E+06,   2.43232E+06
C:/temp/Job-49.odb,Step-1,Increment      1: Step Time =    1.000,"P-49-1",           173,       158.483,       51.8489,            0.,NA,NA,"",   2.30378E+06,   2.02423E+06,   2.02423E+06
C:/temp/Job-49.odb,Step-1,Increment      1: Step Time =    1.000,"P-49-1",           174,       168.906,       51.6528,            0.,NA,NA,"",   2.18349E+06,   1.87622E+06,   1.87622E+06
C:/temp/Job-49.odb,Step-1,Increment      1: Step Time =    1.000,"P-49-1",           175,       180.292,       50.8812,            0.,NA,NA,"",   1.76536E+06,   1.66009E+06,   1.66009E+06
C:/temp/Job-49.odb,Step-1,Increment      1: Step Time =    1.000,"P-49-1",           176,       190.602,       50.1504,            0.,NA,NA,"",   1.23813E+06,   1.34416E+06,   1.34416E+06
C:/temp/Job-49.odb,Step-1,Increment      1: Step Time =    1.000,"P-49-1",           177,       139.218,       39.8336,            0.,NA,NA,"",   3.04016E+06,   3.12209E+06,   3.12209E+06
C:/temp/Job-49.odb,Step-1,Increment      1: Step Time =    1.000,"P-49-1",           178,       149.295,       41.6446,            0.,NA,NA,"",   2.52032E+06,   2.45241E+06,   2.45241E+06
C:/temp/Job-49.odb,Step-1,Increment      1: Step Time =    1.000,"P-49-1",           179,       158.411,       40.4407,            0.,NA,NA,"",   2.26443E+06,   2.09032E+06,   2.09032E+06
C:/temp/Job-49.odb,Step-1,Increment      1: Step Time =    1.000,"P-49-1",           180,       181.998,       40.1931,            0.,NA,NA,"",   1.44259E+06,   1.41561E+06,   1.41561E+06
C:/temp/Job-49.odb,Step-1,Increment      1: Step Time =    1.000,"P-49-1",           181,       190.744,       40.5738,            0.,NA,NA,"",   1.12336E+06,   1.18585E+06,   1.18585E+06
C:/temp/Job-49.odb,Step-1,Increment      1: Step Time =    1.000,"P-49-1",           182,       10.4816,       31.4977,            0.,NA,NA,"",   1.51428E+06,   1.63200E+06,   1.63200E+06
C:/temp/Job-49.odb,Step-1,Increment      1: Step Time =    1.000,"P-49-1",           183,       24.6054,       32.9657,            0.,NA,NA,"",   1.65651E+06,   1.64611E+06,   1.64611E+06
C:/temp/Job-49.odb,Step-1,Increment      1: Step Time =    1.000,"P-49-1",           184,       30.7630,       31.3695,            0.,NA,NA,"",   1.80814E+06,   1.73472E+06,   1.73472E+06
C:/temp/Job-49.odb,Step-1,Increment      1: Step Time =    1.000,"P-49-1",           185,       45.4310,       30.8532,            0.,NA,NA,"",   2.10135E+06,   1.88625E+06,   1.88625E+06
C:/temp/Job-49.odb,Step-1,Increment      1: Step Time =    1.000,"P-49-1",           186,       51.2870,       31.5772,            0.,NA,NA,"",   2.19495E+06,   1.92757E+06,   1.92757E+06
C:/temp/Job-49.odb,Step-1,Increment      1: Step Time =    1.000,"P-49-1",           187,       61.1550,       33.2913,            0.,NA,NA,"",   2.32199E+06,   2.03681E+06,   2.03681E+06
C:/temp/Job-49.odb,Step-1,Increment      1: Step Time =    1.000,"P-49-1",           188,       72.3347,       29.8279,            0.,NA,NA,"",   2.77503E+06,   2.58146E+06,   2.58146E+06
C:/temp/Job-49.odb,Step-1,Increment      1: Step Time =    1.000,"P-49-1",           189,       83.4415,       31.1403,            0.,NA,NA,"",   3.23311E+06,   3.22160E+06,   3.22160E+06
C:/temp/Job-49.odb,Step-1,Increment      1: Step Time =    1.000,"P-49-1",           190,       93.6018,       31.9134,            0.,NA,NA,"",   4.06041E+06,   4.16511E+06,   4.16511E+06
C:/temp/Job-49.odb,Step-1,Increment      1: Step Time =    1.000,"P-49-1",           191,       113.787,       32.1104,            0.,NA,NA,"",   4.20516E+06,   4.40090E+06,   4.40090E+06
C:/temp/Job-49.odb,Step-1,Increment      1: Step Time =    1.000,"P-49-1",           192,       123.527,       28.8039,            0.,NA,NA,"",   3.02391E+06,   3.20914E+06,   3.20914E+06
C:/temp/Job-49.odb,Step-1,Increment      1: Step Time =    1.000,"P-49-1",           193,       137.409,       31.0356,            0.,NA,NA,"",   2.55559E+06,   2.63596E+06,   2.63596E+06
C:/temp/Job-49.odb,Step-1,Increment      1: Step Time =    1.000,"P-49-1",           194,       147.324,       33.0035,            0.,NA,NA,"",   2.33103E+06,   2.30146E+06,   2.30146E+06
C:/temp/Job-49.odb,Step-1,Increment      1: Step Time =    1.000,"P-49-1",           195,       156.140,       30.4297,            0.,NA,NA,"",   2.00242E+06,   1.90492E+06,   1.90492E+06
C:/temp/Job-49.odb,Step-1,Increment      1: Step Time =    1.000,"P-49-1",           196,       170.576,       31.5634,            0.,NA,NA,"",   1.64177E+06,   1.54958E+06,   1.54958E+06
C:/temp/Job-49.odb,Step-1,Increment      1: Step Time =    1.000,"P-49-1",           197,       181.026,       33.4727,            0.,NA,NA,"",   1.35220E+06,   1.32825E+06,   1.32825E+06
C:/temp/Job-49.odb,Step-1,Increment      1: Step Time =    1.000,"P-49-1",           198,       62.6919,       39.9913,            0.,NA,NA,"",   1.78831E+06,   1.53566E+06,   1.53566E+06
C:/temp/Job-49.odb,Step-1,Increment      1: Step Time =    1.000,"P-49-1",           199,       54.9680,       40.3356,            0.,NA,NA,"",   1.69939E+06,   1.37479E+06,   1.37479E+06
C:/temp/Job-49.odb,Step-1,Increment      1: Step Time =    1.000,"P-49-1",           200,       41.7952,       38.8569,            0.,NA,NA,"",   1.57999E+06,   1.36075E+06,   1.36075E+06
C:/temp/Job-49.odb,Step-1,Increment      1: Step Time =    1.000,"P-49-1",           201,       21.6769,       43.2078,            0.,NA,NA,"",   985.793E+03,   994.894E+03,   994.894E+03
C:/temp/Job-49.odb,Step-1,Increment      1: Step Time =    1.000,"P-49-1",           202,       10.1072,       41.4176,            0.,NA,NA,"",   979.870E+03,   1.07124E+06,   1.07124E+06
C:/temp/Job-49.odb,Step-1,Increment      1: Step Time =    1.000,"P-49-1",           203,       50.1299,       50.4218,            0.,NA,NA,"",   902.354E+03,  -249.875E+03,  -249.875E+03
C:/temp/Job-49.odb,Step-1,Increment      1: Step Time =    1.000,"P-49-1",           204,       40.9281,       50.5235,            0.,NA,NA,"",   839.083E+03,   196.526E+03,   196.526E+03
C:/temp/Job-49.odb,Step-1,Increment      1: Step Time =    1.000,"P-49-1",           205,       28.3746,       52.8907,            0.,NA,NA,"",   556.209E+03,   473.424E+03,   473.424E+03
C:/temp/Job-49.odb,Step-1,Increment      1: Step Time =    1.000,"P-49-1",           206,       18.9494,       53.8869,            0.,NA,NA,"",   438.229E+03,   452.280E+03,   452.280E+03
C:/temp/Job-49.odb,Step-1,Increment      1: Step Time =    1.000,"P-49-1",           207,       9.63958,       51.2092,            0.,NA,NA,"",   532.129E+03,   589.701E+03,   589.701E+03
C:/temp/Job-49.odb,Step-1,Increment      1: Step Time =    1.000,"P-49-1",           208,       41.0906,       63.6199,            0.,NA,NA,"",   771.885E+03,  -784.566E+03,  -784.566E+03
C:/temp/Job-49.odb,Step-1,Increment      1: Step Time =    1.000,"P-49-1",           209,       30.6820,       60.8287,            0.,NA,NA,"",   362.974E+03,  -129.224E+03,  -129.224E+03
C:/temp/Job-49.odb,Step-1,Increment      1: Step Time =    1.000,"P-49-1",           210,       21.2728,       65.6127,            0.,NA,NA,"",   152.533E+03,  -106.781E+03,  -106.781E+03
C:/temp/Job-49.odb,Step-1,Increment      1: Step Time =    1.000,"P-49-1",           211,       8.63061,       65.4357,            0.,NA,NA,"",   86.2938E+03,   59.9025E+03,   59.9025E+03
C:/temp/Job-49.odb,Step-1,Increment      1: Step Time =    1.000,"P-49-1",           212,       39.9455,       74.3966,            0.,NA,NA,"",   1.04388E+06,  -1.06616E+06,  -1.06616E+06
C:/temp/Job-49.odb,Step-1,Increment      1: Step Time =    1.000,"P-49-1",           213,       29.3059,       74.0198,            0.,NA,NA,"",   491.984E+03,  -525.209E+03,  -525.209E+03
C:/temp/Job-49.odb,Step-1,Increment      1: Step Time =    1.000,"P-49-1",           214,       18.8701,       72.0540,            0.,NA,NA,"",   206.446E+03,  -220.772E+03,  -220.772E+03
C:/temp/Job-49.odb,Step-1,Increment      1: Step Time =    1.000,"P-49-1",           215,       9.47870,       74.9324,            0.,NA,NA,"",   175.803E+03,  -186.778E+03,  -186.778E+03
C:/temp/Job-49.odb,Step-1,Increment      1: Step Time =    1.000,"P-49-1",           216,       30.8890,       85.0067,            0.,NA,NA,"",   616.494E+03,  -664.793E+03,  -664.793E+03
C:/temp/Job-49.odb,Step-1,Increment      1: Step Time =    1.000,"P-49-1",           217,       21.6757,       84.9882,            0.,NA,NA,"",   352.865E+03,  -402.177E+03,  -402.177E+03
C:/temp/Job-49.odb,Step-1,Increment      1: Step Time =    1.000,"P-49-1",           218,       10.9619,       86.4659,            0.,NA,NA,"",   275.785E+03,  -313.067E+03,  -313.067E+03
C:/temp/Job-49.odb,Step-1,Increment      1: Step Time =    1.000,"P-49-1",           219,       20.8410,       94.8129,            0.,NA,NA,"",   325.041E+03,  -369.499E+03,  -369.499E+03
C:/temp/Job-49.odb,Step-1,Increment      1: Step Time =    1.000,"P-49-1",           220,       9.66643,       94.2442,            0.,NA,NA,"",   294.810E+03,  -337.692E+03,  -337.692E+03
C:/temp/Job-49.odb,Step-1,Increment      1: Step Time =    1.000,"P-49-1",           221,       31.9827,       116.540,            0.,NA,NA,"",   662.965E+03,  -706.250E+03,  -706.250E+03
C:/temp/Job-49.odb,Step-1,Increment      1: Step Time =    1.000,"P-49-1",           222,       21.2419,       114.609,            0.,NA,NA,"",   347.067E+03,  -396.378E+03,  -396.378E+03
C:/temp/Job-49.odb,Step-1,Increment      1: Step Time =    1.000,"P-49-1",           223,       10.1865,       114.935,            0.,NA,NA,"",   270.424E+03,  -306.269E+03,  -306.269E+03
C:/temp/Job-49.odb,Step-1,Increment      1: Step Time =    1.000,"P-49-1",           224,       10.5380,       104.702,            0.,NA,NA,"",   293.894E+03,  -337.263E+03,  -337.263E+03
C:/temp/Job-49.odb,Step-1,Increment      1: Step Time =    1.000,"P-49-1",           225,       30.5139,       106.838,            0.,NA,NA,"",   572.645E+03,  -625.721E+03,  -625.721E+03
C:/temp/Job-49.odb,Step-1,Increment      1: Step Time =    1.000,"P-49-1",           226,       30.1061,       129.044,            0.,NA,NA,"",   465.317E+03,  -490.552E+03,  -490.552E+03
C:/temp/Job-49.odb,Step-1,Increment      1: Step Time =    1.000,"P-49-1",           227,       23.5956,       128.327,            0.,NA,NA,"",   288.720E+03,  -308.420E+03,  -308.420E+03
C:/temp/Job-49.odb,Step-1,Increment      1: Step Time =    1.000,"P-49-1",           228,       11.7819,       125.515,            0.,NA,NA,"",   185.431E+03,  -198.000E+03,  -198.000E+03
C:/temp/Job-49.odb,Step-1,Increment      1: Step Time =    1.000,"P-49-1",           229,       42.7288,       138.601,            0.,NA,NA,"",   775.743E+03,  -775.614E+03,  -775.614E+03
C:/temp/Job-49.odb,Step-1,Increment      1: Step Time =    1.000,"P-49-1",           230,       32.7764,       139.673,            0.,NA,NA,"",   390.305E+03,  -319.697E+03,  -319.697E+03
C:/temp/Job-49.odb,Step-1,Increment      1: Step Time =    1.000,"P-49-1",           231,       21.2419,       136.667,            0.,NA,NA,"",   136.282E+03,  -36.9542E+03,  -36.9542E+03
C:/temp/Job-49.odb,Step-1,Increment      1: Step Time =    1.000,"P-49-1",           232,       9.88480,       136.314,            0.,NA,NA,"",   105.829E+03,   114.994E+03,   114.994E+03
C:/temp/Job-49.odb,Step-1,Increment      1: Step Time =    1.000,"P-49-1",           233,       55.7025,       147.951,            0.,NA,NA,"",   792.142E+03,  -657.087E+03,  -657.087E+03
C:/temp/Job-49.odb,Step-1,Increment      1: Step Time =    1.000,"P-49-1",           234,       42.4201,       145.087,            0.,NA,NA,"",   678.520E+03,  -291.881E+03,  -291.881E+03
C:/temp/Job-49.odb,Step-1,Increment      1: Step Time =    1.000,"P-49-1",           235,       32.3214,       146.544,            0.,NA,NA,"",   572.112E+03,   304.540E+03,   304.540E+03
C:/temp/Job-49.odb,Step-1,Increment      1: Step Time =    1.000,"P-49-1",           236,       20.6893,       146.830,            0.,NA,NA,"",   479.524E+03,   481.202E+03,   481.202E+03
C:/temp/Job-49.odb,Step-1,Increment      1: Step Time =    1.000,"P-49-1",           237,       9.66570,       150.794,            0.,NA,NA,"",   613.505E+03,   678.338E+03,   678.338E+03
C:/temp/Job-49.odb,Step-1,Increment      1: Step Time =    1.000,"P-49-1",           238,       189.573,       10.3556,            0.,NA,NA,"",   1.00635E+06,   999.657E+03,   999.657E+03
C:/temp/Job-49.odb,Step-1,Increment      1: Step Time =    1.000,"P-49-1",           239,       179.549,       10.1496,            0.,NA,NA,"",   1.01002E+06,   1.00209E+06,   1.00209E+06
C:/temp/Job-49.odb,Step-1,Increment      1: Step Time =    1.000,"P-49-1",           240,       169.345,       9.92336,            0.,NA,NA,"",   1.01824E+06,   998.802E+03,   998.802E+03
C:/temp/Job-49.odb,Step-1,Increment      1: Step Time =    1.000,"P-49-1",           241,       158.233,       10.2801,            0.,NA,NA,"",   1.02320E+06,   989.522E+03,   989.522E+03
C:/temp/Job-49.odb,Step-1,Increment      1: Step Time =    1.000,"P-49-1",           242,       151.075,       9.52744,            0.,NA,NA,"",   936.583E+03,   901.867E+03,   901.867E+03
C:/temp/Job-49.odb,Step-1,Increment      1: Step Time =    1.000,"P-49-1",           243,       135.270,       10.2896,            0.,NA,NA,"",   855.722E+03,   849.474E+03,   849.474E+03
C:/temp/Job-49.odb,Step-1,Increment      1: Step Time =    1.000,"P-49-1",           244,       125.111,       9.43223,            0.,NA,NA,"",   665.178E+03,   693.046E+03,   693.046E+03
C:/temp/Job-49.odb,Step-1,Increment      1: Step Time =    1.000,"P-49-1",           245,       115.351,       8.74357,            0.,NA,NA,"",   621.132E+03,   661.832E+03,   661.832E+03
C:/temp/Job-49.odb,Step-1,Increment      1: Step Time =    1.000,"P-49-1",           246,       105.718,       8.93423,            0.,NA,NA,"",   917.726E+03,   930.242E+03,   930.242E+03
C:/temp/Job-49.odb,Step-1,Increment      1: Step Time =    1.000,"P-49-1",           247,       95.6935,       9.50449,            0.,NA,NA,"",   1.42597E+06,   1.38760E+06,   1.38760E+06
C:/temp/Job-49.odb,Step-1,Increment      1: Step Time =    1.000,"P-49-1",           248,       85.1758,       9.80691,            0.,NA,NA,"",   1.88905E+06,   1.80055E+06,   1.80055E+06
C:/temp/Job-49.odb,Step-1,Increment      1: Step Time =    1.000,"P-49-1",           249,       74.7058,       9.33615,            0.,NA,NA,"",   2.23049E+06,   2.13942E+06,   2.13942E+06
C:/temp/Job-49.odb,Step-1,Increment      1: Step Time =    1.000,"P-49-1",           250,       64.7158,       9.04580,            0.,NA,NA,"",   2.51505E+06,   2.43776E+06,   2.43776E+06
C:/temp/Job-49.odb,Step-1,Increment      1: Step Time =    1.000,"P-49-1",           251,       49.6839,       9.96549,            0.,NA,NA,"",   2.78589E+06,   2.73354E+06,   2.73354E+06
C:/temp/Job-49.odb,Step-1,Increment      1: Step Time =    1.000,"P-49-1",           252,       39.6445,       9.46379,            0.,NA,NA,"",   2.89803E+06,   2.86792E+06,   2.86792E+06
C:/temp/Job-49.odb,Step-1,Increment      1: Step Time =    1.000,"P-49-1",           253,       29.9880,       9.07015,            0.,NA,NA,"",   2.96839E+06,   2.95684E+06,   2.95684E+06
C:/temp/Job-49.odb,Step-1,Increment      1: Step Time =    1.000,"P-49-1",           254,       20.3867,       9.47472,            0.,NA,NA,"",   2.99455E+06,   3.00405E+06,   3.00405E+06
C:/temp/Job-49.odb,Step-1,Increment      1: Step Time =    1.000,"P-49-1",           255,       10.4648,       9.99538,            0.,NA,NA,"",   3.00276E+06,   3.08676E+06,   3.08676E+06
C:/temp/Job-49.odb,Step-1,Increment      1: Step Time =    1.000,"P-49-1",           256,       189.364,       21.0529,            0.,NA,NA,"",   1.05939E+06,   1.05460E+06,   1.05460E+06
C:/temp/Job-49.odb,Step-1,Increment      1: Step Time =    1.000,"P-49-1",           257,       176.454,       24.7639,            0.,NA,NA,"",   1.30556E+06,   1.27224E+06,   1.27224E+06
C:/temp/Job-49.odb,Step-1,Increment      1: Step Time =    1.000,"P-49-1",           258,       168.729,       23.3312,            0.,NA,NA,"",   1.44613E+06,   1.38356E+06,   1.38356E+06
C:/temp/Job-49.odb,Step-1,Increment      1: Step Time =    1.000,"P-49-1",           259,       159.041,       19.6680,            0.,NA,NA,"",   1.46616E+06,   1.40213E+06,   1.40213E+06
C:/temp/Job-49.odb,Step-1,Increment      1: Step Time =    1.000,"P-49-1",           260,       147.279,       21.4501,            0.,NA,NA,"",   1.72821E+06,   1.69452E+06,   1.69452E+06
C:/temp/Job-49.odb,Step-1,Increment      1: Step Time =    1.000,"P-49-1",           261,       134.552,       21.1114,            0.,NA,NA,"",   1.86510E+06,   1.92577E+06,   1.92577E+06
C:/temp/Job-49.odb,Step-1,Increment      1: Step Time =    1.000,"P-49-1",           262,       114.117,       19.3699,            0.,NA,NA,"",   1.97523E+06,   2.11261E+06,   2.11261E+06
C:/temp/Job-49.odb,Step-1,Increment      1: Step Time =    1.000,"P-49-1",           263,       106.998,       19.0595,            0.,NA,NA,"",   2.15468E+06,   2.26681E+06,   2.26681E+06
C:/temp/Job-49.odb,Step-1,Increment      1: Step Time =    1.000,"P-49-1",           264,       95.0865,       21.7357,            0.,NA,NA,"",   2.77028E+06,   2.81815E+06,   2.81815E+06
C:/temp/Job-49.odb,Step-1,Increment      1: Step Time =    1.000,"P-49-1",           265,       84.4784,       21.4876,            0.,NA,NA,"",   2.82672E+06,   2.73436E+06,   2.73436E+06
C:/temp/Job-49.odb,Step-1,Increment      1: Step Time =    1.000,"P-49-1",           266,       73.5676,       19.0109,            0.,NA,NA,"",   2.73133E+06,   2.54523E+06,   2.54523E+06
C:/temp/Job-49.odb,Step-1,Increment      1: Step Time =    1.000,"P-49-1",           267,       66.8510,       20.0430,            0.,NA,NA,"",   2.74001E+06,   2.53131E+06,   2.53131E+06
C:/temp/Job-49.odb,Step-1,Increment      1: Step Time =    1.000,"P-49-1",           268,       55.7562,       20.5869,            0.,NA,NA,"",   2.60388E+06,   2.41234E+06,   2.41234E+06
C:/temp/Job-49.odb,Step-1,Increment      1: Step Time =    1.000,"P-49-1",           269,       43.1029,       20.0295,            0.,NA,NA,"",   2.48865E+06,   2.37701E+06,   2.37701E+06
C:/temp/Job-49.odb,Step-1,Increment      1: Step Time =    1.000,"P-49-1",           270,       33.0731,       20.3550,            0.,NA,NA,"",   2.42569E+06,   2.36741E+06,   2.36741E+06
C:/temp/Job-49.odb,Step-1,Increment      1: Step Time =    1.000,"P-49-1",           271,       21.2150,       19.4756,            0.,NA,NA,"",   2.42250E+06,   2.44735E+06,   2.44735E+06
C:/temp/Job-49.odb,Step-1,Increment      1: Step Time =    1.000,"P-49-1",           272,       12.4724,       20.8736,            0.,NA,NA,"",   2.21624E+06,   2.32748E+06,   2.32748E+06
C:/temp/Job-49.odb,Step-1,Increment      1: Step Time =    1.000,"P-49-1",           273,       190.251,       179.868,            0.,NA,NA,"",   1.04927E+06,   1.04282E+06,   1.04282E+06
C:/temp/Job-49.odb,Step-1,Increment      1: Step Time =    1.000,"P-49-1",           274,       177.893,       177.410,            0.,NA,NA,"",   1.23809E+06,   1.21326E+06,   1.21326E+06
C:/temp/Job-49.odb,Step-1,Increment      1: Step Time =    1.000,"P-49-1",           275,       168.165,       181.109,            0.,NA,NA,"",   1.31136E+06,   1.26434E+06,   1.26434E+06
C:/temp/Job-49.odb,Step-1,Increment      1: Step Time =    1.000,"P-49-1",           276,       159.394,       180.862,            0.,NA,NA,"",   1.43492E+06,   1.37327E+06,   1.37327E+06
C:/temp/Job-49.odb,Step-1,Increment      1: Step Time =    1.000,"P-49-1",           277,       150.117,       181.107,            0.,NA,NA,"",   1.53783E+06,   1.48835E+06,   1.48835E+06
C:/temp/Job-49.odb,Step-1,Increment      1: Step Time =    1.000,"P-49-1",           278,       135.801,       180.404,            0.,NA,NA,"",   1.70963E+06,   1.75053E+06,   1.75053E+06
C:/temp/Job-49.odb,Step-1,Increment      1: Step Time =    1.000,"P-49-1",           279,       124.397,       180.147,            0.,NA,NA,"",   1.84923E+06,   1.96054E+06,   1.96054E+06
C:/temp/Job-49.odb,Step-1,Increment      1: Step Time =    1.000,"P-49-1",           280,       116.616,       178.924,            0.,NA,NA,"",   2.17591E+06,   2.33133E+06,   2.33133E+06
C:/temp/Job-49.odb,Step-1,Increment      1: Step Time =    1.000,"P-49-1",           281,       105.185,       179.200,            0.,NA,NA,"",   2.44347E+06,   2.56689E+06,   2.56689E+06
C:/temp/Job-49.odb,Step-1,Increment      1: Step Time =    1.000,"P-49-1",           282,       94.5150,       178.956,            0.,NA,NA,"",   2.70218E+06,   2.73306E+06,   2.73306E+06
C:/temp/Job-49.odb,Step-1,Increment      1: Step Time =    1.000,"P-49-1",           283,       84.0026,       179.369,            0.,NA,NA,"",   2.77864E+06,   2.67852E+06,   2.67852E+06
C:/temp/Job-49.odb,Step-1,Increment      1: Step Time =    1.000,"P-49-1",           284,       74.1530,       180.307,            0.,NA,NA,"",   2.74230E+06,   2.55261E+06,   2.55261E+06
C:/temp/Job-49.odb,Step-1,Increment      1: Step Time =    1.000,"P-49-1",           285,       63.3479,       180.312,            0.,NA,NA,"",   2.68504E+06,   2.48509E+06,   2.48509E+06
C:/temp/Job-49.odb,Step-1,Increment      1: Step Time =    1.000,"P-49-1",           286,       53.9947,       180.909,            0.,NA,NA,"",   2.60495E+06,   2.44758E+06,   2.44758E+06
C:/temp/Job-49.odb,Step-1,Increment      1: Step Time =    1.000,"P-49-1",           287,       31.5741,       180.208,            0.,NA,NA,"",   2.43544E+06,   2.38710E+06,   2.38710E+06
C:/temp/Job-49.odb,Step-1,Increment      1: Step Time =    1.000,"P-49-1",           288,       24.0143,       178.656,            0.,NA,NA,"",   2.30306E+06,   2.30677E+06,   2.30677E+06
C:/temp/Job-49.odb,Step-1,Increment      1: Step Time =    1.000,"P-49-1",           289,       9.58404,       179.810,            0.,NA,NA,"",   2.19159E+06,   2.34018E+06,   2.34018E+06
C:/temp/Job-49.odb,Step-1,Increment      1: Step Time =    1.000,"P-49-1",           290,       189.880,       189.763,            0.,NA,NA,"",   1.00532E+06,   998.541E+03,   998.541E+03
C:/temp/Job-49.odb,Step-1,Increment      1: Step Time =    1.000,"P-49-1",           291,       179.389,       189.491,            0.,NA,NA,"",   1.01537E+06,   1.00693E+06,   1.00693E+06
C:/temp/Job-49.odb,Step-1,Increment      1: Step Time =    1.000,"P-49-1",           292,       169.191,       190.273,            0.,NA,NA,"",   1.01066E+06,   991.832E+03,   991.832E+03
C:/temp/Job-49.odb,Step-1,Increment      1: Step Time =    1.000,"P-49-1",           293,       159.644,       190.425,            0.,NA,NA,"",   985.875E+03,   956.724E+03,   956.724E+03
C:/temp/Job-49.odb,Step-1,Increment      1: Step Time =    1.000,"P-49-1",           294,       149.978,       190.388,            0.,NA,NA,"",   943.068E+03,   907.696E+03,   907.696E+03
C:/temp/Job-49.odb,Step-1,Increment      1: Step Time =    1.000,"P-49-1",           295,       135.121,       190.050,            0.,NA,NA,"",   825.652E+03,   819.431E+03,   819.431E+03
C:/temp/Job-49.odb,Step-1,Increment      1: Step Time =    1.000,"P-49-1",           296,       125.151,       189.974,            0.,NA,NA,"",   744.544E+03,   776.244E+03,   776.244E+03
C:/temp/Job-49.odb,Step-1,Increment      1: Step Time =    1.000,"P-49-1",           297,       115.150,       189.720,            0.,NA,NA,"",   815.947E+03,   870.628E+03,   870.628E+03
C:/temp/Job-49.odb,Step-1,Increment      1: Step Time =    1.000,"P-49-1",           298,       104.970,       189.387,            0.,NA,NA,"",   1.16006E+06,   1.18069E+06,   1.18069E+06
C:/temp/Job-49.odb,Step-1,Increment      1: Step Time =    1.000,"P-49-1",           299,       94.8109,       189.414,            0.,NA,NA,"",   1.58478E+06,   1.54021E+06,   1.54021E+06
C:/temp/Job-49.odb,Step-1,Increment      1: Step Time =    1.000,"P-49-1",           300,       84.8236,       189.675,            0.,NA,NA,"",   1.96774E+06,   1.87684E+06,   1.87684E+06
C:/temp/Job-49.odb,Step-1,Increment      1: Step Time =    1.000,"P-49-1",           301,       74.6635,       189.971,            0.,NA,NA,"",   2.28875E+06,   2.18605E+06,   2.18605E+06
C:/temp/Job-49.odb,Step-1,Increment      1: Step Time =    1.000,"P-49-1",           302,       64.5470,       190.387,            0.,NA,NA,"",   2.53302E+06,   2.45146E+06,   2.45146E+06
C:/temp/Job-49.odb,Step-1,Increment      1: Step Time =    1.000,"P-49-1",           303,       51.2033,       186.828,            0.,NA,NA,"",   2.69677E+06,   2.60865E+06,   2.60865E+06
C:/temp/Job-49.odb,Step-1,Increment      1: Step Time =    1.000,"P-49-1",           304,       40.9827,       189.064,            0.,NA,NA,"",   2.82326E+06,   2.78421E+06,   2.78421E+06
C:/temp/Job-49.odb,Step-1,Increment      1: Step Time =    1.000,"P-49-1",           305,       30.5064,       189.815,            0.,NA,NA,"",   2.91527E+06,   2.89939E+06,   2.89939E+06
C:/temp/Job-49.odb,Step-1,Increment      1: Step Time =    1.000,"P-49-1",           306,       20.4676,       189.274,            0.,NA,NA,"",   2.92626E+06,   2.93901E+06,   2.93901E+06
C:/temp/Job-49.odb,Step-1,Increment      1: Step Time =    1.000,"P-49-1",           307,       10.0973,       189.718,            0.,NA,NA,"",   2.96960E+06,   3.06363E+06,   3.06363E+06
C:/temp/Job-49.odb,Step-1,Increment      1: Step Time =    1.000,"P-49-1",           308,       95.0279,       160.797,            0.,NA,NA,"",   5.19383E+06,   5.26130E+06,   5.26130E+06
C:/temp/Job-49.odb,Step-1,Increment      1: Step Time =    1.000,"P-49-1",           309,       90.0890,       160.189,            0.,NA,NA,"",   4.54349E+06,   4.59857E+06,   4.59857E+06
C:/temp/Job-49.odb,Step-1,Increment      1: Step Time =    1.000,"P-49-1",           310,       80.4413,       157.779,            0.,NA,NA,"",   2.96811E+06,   2.99549E+06,   2.99549E+06
C:/temp/Job-49.odb,Step-1,Increment      1: Step Time =    1.000,"P-49-1",           311,       75.7968,       155.993,            0.,NA,NA,"",   2.15599E+06,   2.15617E+06,   2.15617E+06
C:/temp/Job-49.odb,Step-1,Increment      1: Step Time =    1.000,"P-49-1",           312,       67.0209,       151.316,            0.,NA,NA,"",   864.080E+03,   755.732E+03,   755.732E+03
C:/temp/Job-49.odb,Step-1,Increment      1: Step Time =    1.000,"P-49-1",           313,       62.9479,       148.458,            0.,NA,NA,"",   620.327E+03,  -10.7333E+03,  -10.7333E+03
C:/temp/Job-49.odb,Step-1,Increment      1: Step Time =    1.000,"P-49-1",           314,       55.5670,       141.794,            0.,NA,NA,"",   1.05831E+06,  -1.05773E+06,  -1.05773E+06
C:/temp/Job-49.odb,Step-1,Increment      1: Step Time =    1.000,"P-49-1",           315,       52.3083,       138.033,            0.,NA,NA,"",   1.26522E+06,  -1.27466E+06,  -1.27466E+06
C:/temp/Job-49.odb,Step-1,Increment      1: Step Time =    1.000,"P-49-1",           316,       46.7626,       129.779,            0.,NA,NA,"",   1.34245E+06,  -1.35670E+06,  -1.35670E+06
C:/temp/Job-49.odb,Step-1,Increment      1: Step Time =    1.000,"P-49-1",           317,       44.5124,       125.340,            0.,NA,NA,"",   1.24810E+06,  -1.26613E+06,  -1.26613E+06
C:/temp/Job-49.odb,Step-1,Increment      1: Step Time =    1.000,"P-49-1",           318,       41.1325,       115.988,            0.,NA,NA,"",   1.00121E+06,  -1.02029E+06,  -1.02029E+06
C:/temp/Job-49.odb,Step-1,Increment      1: Step Time =    1.000,"P-49-1",           319,       40.0252,       111.137,            0.,NA,NA,"",   893.198E+03,  -908.571E+03,  -908.571E+03
C:/temp/Job-49.odb,Step-1,Increment      1: Step Time =    1.000,"P-49-1",           320,       39.0127,       101.244,            0.,NA,NA,"",   775.546E+03,  -792.806E+03,  -792.806E+03
C:/temp/Job-49.odb,Step-1,Increment      1: Step Time =    1.000,"P-49-1",           321,       39.1142,       96.2691,            0.,NA,NA,"",   783.182E+03,  -800.932E+03,  -800.932E+03
C:/temp/Job-49.odb,Step-1,Increment      1: Step Time =    1.000,"P-49-1",           322,       40.5294,       86.4262,            0.,NA,NA,"",   931.508E+03,  -954.917E+03,  -954.917E+03
C:/temp/Job-49.odb,Step-1,Increment      1: Step Time =    1.000,"P-49-1",           323,       41.8337,       81.6240,            0.,NA,NA,"",   1.05272E+06,  -1.07625E+06,  -1.07625E+06
C:/temp/Job-49.odb,Step-1,Increment      1: Step Time =    1.000,"P-49-1",           324,       45.5922,       72.4175,            0.,NA,NA,"",   1.32272E+06,  -1.33515E+06,  -1.33515E+06
C:/temp/Job-49.odb,Step-1,Increment      1: Step Time =    1.000,"P-49-1",           325,       48.0215,       68.0746,            0.,NA,NA,"",   1.36424E+06,  -1.37835E+06,  -1.37835E+06
C:/temp/Job-49.odb,Step-1,Increment      1: Step Time =    1.000,"P-49-1",           326,       53.8993,       60.0535,            0.,NA,NA,"",   1.14703E+06,  -1.15275E+06,  -1.15275E+06
C:/temp/Job-49.odb,Step-1,Increment      1: Step Time =    1.000,"P-49-1",           327,       57.3087,       56.4288,            0.,NA,NA,"",   891.021E+03,  -880.701E+03,  -880.701E+03
C:/temp/Job-49.odb,Step-1,Increment      1: Step Time =    1.000,"P-49-1",           328,       64.9552,       50.0714,            0.,NA,NA,"",   559.247E+03,   138.108E+03,   138.108E+03
C:/temp/Job-49.odb,Step-1,Increment      1: Step Time =    1.000,"P-49-1",           329,       69.1415,       47.3811,            0.,NA,NA,"",   994.233E+03,   952.591E+03,   952.591E+03
C:/temp/Job-49.odb,Step-1,Increment      1: Step Time =    1.000,"P-49-1",           330,       78.1008,       43.0665,            0.,NA,NA,"",   2.43824E+06,   2.45261E+06,   2.45261E+06
C:/temp/Job-49.odb,Step-1,Increment      1: Step Time =    1.000,"P-49-1",           331,       82.8143,       41.4709,            0.,NA,NA,"",   3.23690E+06,   3.26622E+06,   3.26622E+06
C:/temp/Job-49.odb,Step-1,Increment      1: Step Time =    1.000,"P-49-1",           332,       92.5522,       39.4564,            0.,NA,NA,"",   4.75248E+06,   4.82780E+06,   4.82780E+06
C:/temp/Job-49.odb,Step-1,Increment      1: Step Time =    1.000,"P-49-1",           333,       97.5119,       39.0508,            0.,NA,NA,"",   5.56622E+06,   5.63276E+06,   5.63276E+06
C:/temp/Job-49.odb,Step-1,Increment      1: Step Time =    1.000,"P-49-1",           334,       107.448,       39.4564,            0.,NA,NA,"",   6.11848E+06,   6.20074E+06,   6.20074E+06
C:/temp/Job-49.odb,Step-1,Increment      1: Step Time =    1.000,"P-49-1",           335,       117.186,       41.4709,            0.,NA,NA,"",   5.85553E+06,   5.93144E+06,   5.93144E+06
C:/temp/Job-49.odb,Step-1,Increment      1: Step Time =    1.000,"P-49-1",           336,       121.899,       43.0665,            0.,NA,NA,"",   5.41573E+06,   5.49623E+06,   5.49623E+06
C:/temp/Job-49.odb,Step-1,Increment      1: Step Time =    1.000,"P-49-1",           337,       130.859,       47.3811,            0.,NA,NA,"",   4.30388E+06,   4.38398E+06,   4.38398E+06
C:/temp/Job-49.odb,Step-1,Increment      1: Step Time =    1.000,"P-49-1",           338,       135.045,       50.0714,            0.,NA,NA,"",   3.69696E+06,   3.76675E+06,   3.76675E+06
C:/temp/Job-49.odb,Step-1,Increment      1: Step Time =    1.000,"P-49-1",           339,       142.691,       56.4288,            0.,NA,NA,"",   2.46275E+06,   2.48594E+06,   2.48594E+06
C:/temp/Job-49.odb,Step-1,Increment      1: Step Time =    1.000,"P-49-1",           340,       146.101,       60.0535,            0.,NA,NA,"",   1.82501E+06,   1.82016E+06,   1.82016E+06
C:/temp/Job-49.odb,Step-1,Increment      1: Step Time =    1.000,"P-49-1",           341,       151.979,       68.0746,            0.,NA,NA,"",   851.822E+03,   192.000E+03,   192.000E+03
C:/temp/Job-49.odb,Step-1,Increment      1: Step Time =    1.000,"P-49-1",           342,       154.408,       72.4175,            0.,NA,NA,"",   916.450E+03,  -740.490E+03,  -740.490E+03
C:/temp/Job-49.odb,Step-1,Increment      1: Step Time =    1.000,"P-49-1",           343,       158.166,       81.6240,            0.,NA,NA,"",   2.06924E+06,  -2.07644E+06,  -2.07644E+06
C:/temp/Job-49.odb,Step-1,Increment      1: Step Time =    1.000,"P-49-1",           344,       159.471,       86.4262,            0.,NA,NA,"",   2.63655E+06,  -2.65989E+06,  -2.65989E+06
C:/temp/Job-49.odb,Step-1,Increment      1: Step Time =    1.000,"P-49-1",           345,       160.886,       96.2691,            0.,NA,NA,"",   3.31659E+06,  -3.35190E+06,  -3.35190E+06
C:/temp/Job-49.odb,Step-1,Increment      1: Step Time =    1.000,"P-49-1",           346,       160.987,       101.244,            0.,NA,NA,"",   3.33478E+06,  -3.36518E+06,  -3.36518E+06
C:/temp/Job-49.odb,Step-1,Increment      1: Step Time =    1.000,"P-49-1",           347,       159.975,       111.137,            0.,NA,NA,"",   2.67625E+06,  -2.71928E+06,  -2.71928E+06
C:/temp/Job-49.odb,Step-1,Increment      1: Step Time =    1.000,"P-49-1",           348,       158.867,       115.988,            0.,NA,NA,"",   2.19468E+06,  -2.22272E+06,  -2.22272E+06
C:/temp/Job-49.odb,Step-1,Increment      1: Step Time =    1.000,"P-49-1",           349,       155.488,       125.340,            0.,NA,NA,"",   1.02511E+06,  -980.932E+03,  -980.932E+03
C:/temp/Job-49.odb,Step-1,Increment      1: Step Time =    1.000,"P-49-1",           350,       153.237,       129.779,            0.,NA,NA,"",   685.959E+03,  -69.6662E+03,  -69.6662E+03
C:/temp/Job-49.odb,Step-1,Increment      1: Step Time =    1.000,"P-49-1",           351,       147.692,       138.033,            0.,NA,NA,"",   1.56267E+06,   1.53249E+06,   1.53249E+06
C:/temp/Job-49.odb,Step-1,Increment      1: Step Time =    1.000,"P-49-1",           352,       144.433,       141.794,            0.,NA,NA,"",   2.20291E+06,   2.19594E+06,   2.19594E+06
C:/temp/Job-49.odb,Step-1,Increment      1: Step Time =    1.000,"P-49-1",           353,       137.052,       148.458,            0.,NA,NA,"",   3.53132E+06,   3.57573E+06,   3.57573E+06
C:/temp/Job-49.odb,Step-1,Increment      1: Step Time =    1.000,"P-49-1",           354,       132.979,       151.316,            0.,NA,NA,"",   4.16364E+06,   4.22310E+06,   4.22310E+06
C:/temp/Job-49.odb,Step-1,Increment      1: Step Time =    1.000,"P-49-1",           355,       124.203,       155.993,            0.,NA,NA,"",   5.27001E+06,   5.35059E+06,   5.35059E+06
C:/temp/Job-49.odb,Step-1,Increment      1: Step Time =    1.000,"P-49-1",           356,       119.559,       157.779,            0.,NA,NA,"",   5.67217E+06,   5.75895E+06,   5.75895E+06
C:/temp/Job-49.odb,Step-1,Increment      1: Step Time =    1.000,"P-49-1",           357,       109.911,       160.189,            0.,NA,NA,"",   6.06333E+06,   6.15300E+06,   6.15300E+06
C:/temp/Job-49.odb,Step-1,Increment      1: Step Time =    1.000,"P-49-1",           358,       104.972,       160.797,            0.,NA,NA,"",   5.97630E+06,   6.06299E+06,   6.06299E+06
C:/temp/Job-49.odb,Step-1,Increment      1: Step Time =    1.000,"P-49-1",           359,          195.,            0.,            0.,NA,NA,"",   991.069E+03,   989.303E+03,   989.303E+03
C:/temp/Job-49.odb,Step-1,Increment      1: Step Time =    1.000,"P-49-1",           360,          185.,            0.,            0.,NA,NA,"",   942.699E+03,   941.793E+03,   941.793E+03
C:/temp/Job-49.odb,Step-1,Increment      1: Step Time =    1.000,"P-49-1",           361,          175.,            0.,            0.,NA,NA,"",   866.385E+03,   864.045E+03,   864.045E+03
C:/temp/Job-49.odb,Step-1,Increment      1: Step Time =    1.000,"P-49-1",           362,          165.,            0.,            0.,NA,NA,"",   743.515E+03,   740.522E+03,   740.522E+03
C:/temp/Job-49.odb,Step-1,Increment      1: Step Time =    1.000,"P-49-1",           363,          155.,            0.,            0.,NA,NA,"",   549.564E+03,   545.160E+03,   545.160E+03
C:/temp/Job-49.odb,Step-1,Increment      1: Step Time =    1.000,"P-49-1",           364,          145.,            0.,            0.,NA,NA,"",   296.099E+03,   283.138E+03,   283.138E+03
C:/temp/Job-49.odb,Step-1,Increment      1: Step Time =    1.000,"P-49-1",           365,          135.,            0.,            0.,NA,NA,"",   150.380E+03,  -17.5591E+03,  -17.5591E+03
C:/temp/Job-49.odb,Step-1,Increment      1: Step Time =    1.000,"P-49-1",           366,          125.,            0.,            0.,NA,NA,"",   288.854E+03,  -279.854E+03,  -279.854E+03
C:/temp/Job-49.odb,Step-1,Increment      1: Step Time =    1.000,"P-49-1",           367,          115.,            0.,            0.,NA,NA,"",   355.587E+03,  -347.721E+03,  -347.721E+03
C:/temp/Job-49.odb,Step-1,Increment      1: Step Time =    1.000,"P-49-1",           368,          105.,            0.,            0.,NA,NA,"",   221.293E+03,  -182.588E+03,  -182.588E+03
C:/temp/Job-49.odb,Step-1,Increment      1: Step Time =    1.000,"P-49-1",           369,           95.,            0.,            0.,NA,NA,"",   447.756E+03,   422.418E+03,   422.418E+03
C:/temp/Job-49.odb,Step-1,Increment      1: Step Time =    1.000,"P-49-1",           370,           85.,            0.,            0.,NA,NA,"",   1.10491E+06,   1.08977E+06,   1.08977E+06
C:/temp/Job-49.odb,Step-1,Increment      1: Step Time =    1.000,"P-49-1",           371,           75.,            0.,            0.,NA,NA,"",   1.81107E+06,   1.80085E+06,   1.80085E+06
C:/temp/Job-49.odb,Step-1,Increment      1: Step Time =    1.000,"P-49-1",           372,           65.,            0.,            0.,NA,NA,"",   2.44441E+06,   2.43603E+06,   2.43603E+06
C:/temp/Job-49.odb,Step-1,Increment      1: Step Time =    1.000,"P-49-1",           373,           55.,            0.,            0.,NA,NA,"",   2.89814E+06,   2.89166E+06,   2.89166E+06
C:/temp/Job-49.odb,Step-1,Increment      1: Step Time =    1.000,"P-49-1",           374,           45.,            0.,            0.,NA,NA,"",   3.17066E+06,   3.16594E+06,   3.16594E+06
C:/temp/Job-49.odb,Step-1,Increment      1: Step Time =    1.000,"P-49-1",           375,           35.,            0.,            0.,NA,NA,"",   3.30059E+06,   3.29835E+06,   3.29835E+06
C:/temp/Job-49.odb,Step-1,Increment      1: Step Time =    1.000,"P-49-1",           376,           25.,            0.,            0.,NA,NA,"",   3.33018E+06,   3.33129E+06,   3.33129E+06
C:/temp/Job-49.odb,Step-1,Increment      1: Step Time =    1.000,"P-49-1",           377,           15.,            0.,            0.,NA,NA,"",   3.34485E+06,   3.35411E+06,   3.35411E+06
C:/temp/Job-49.odb,Step-1,Increment      1: Step Time =    1.000,"P-49-1",           378,            5.,            0.,            0.,NA,NA,"",   3.67388E+06,   3.75636E+06,   3.75636E+06
C:/temp/Job-49.odb,Step-1,Increment      1: Step Time =    1.000,"P-49-1",           379,          200.,          195.,            0.,NA,NA,"",   1.00210E+06,   996.756E+03,   996.756E+03
C:/temp/Job-49.odb,Step-1,Increment      1: Step Time =    1.000,"P-49-1",           380,          200.,          185.,            0.,NA,NA,"",   1.02826E+06,   1.00222E+06,   1.00222E+06
C:/temp/Job-49.odb,Step-1,Increment      1: Step Time =    1.000,"P-49-1",           381,          200.,          175.,            0.,NA,NA,"",   1.03716E+06,   1.00919E+06,   1.00919E+06
C:/temp/Job-49.odb,Step-1,Increment      1: Step Time =    1.000,"P-49-1",           382,          200.,          165.,            0.,NA,NA,"",   980.926E+03,   1.01747E+06,   1.01747E+06
C:/temp/Job-49.odb,Step-1,Increment      1: Step Time =    1.000,"P-49-1",           383,          200.,          155.,            0.,NA,NA,"",   909.433E+03,   1.03350E+06,   1.03350E+06
C:/temp/Job-49.odb,Step-1,Increment      1: Step Time =    1.000,"P-49-1",           384,          200.,          145.,            0.,NA,NA,"",   1.04095E+06,   1.16924E+06,   1.16924E+06
C:/temp/Job-49.odb,Step-1,Increment      1: Step Time =    1.000,"P-49-1",           385,          200.,          135.,            0.,NA,NA,"",   1.54586E+06,   1.77979E+06,   1.77979E+06
C:/temp/Job-49.odb,Step-1,Increment      1: Step Time =    1.000,"P-49-1",           386,          200.,          125.,            0.,NA,NA,"",   2.24790E+06,   2.56919E+06,   2.56919E+06
C:/temp/Job-49.odb,Step-1,Increment      1: Step Time =    1.000,"P-49-1",           387,          200.,          115.,            0.,NA,NA,"",   2.89832E+06,   3.25820E+06,   3.25820E+06
C:/temp/Job-49.odb,Step-1,Increment      1: Step Time =    1.000,"P-49-1",           388,          200.,          105.,            0.,NA,NA,"",   3.25510E+06,   3.63151E+06,   3.63151E+06
C:/temp/Job-49.odb,Step-1,Increment      1: Step Time =    1.000,"P-49-1",           389,          200.,           95.,            0.,NA,NA,"",   3.24041E+06,   3.61344E+06,   3.61344E+06
C:/temp/Job-49.odb,Step-1,Increment      1: Step Time =    1.000,"P-49-1",           390,          200.,           85.,            0.,NA,NA,"",   2.84922E+06,   3.20729E+06,   3.20729E+06
C:/temp/Job-49.odb,Step-1,Increment      1: Step Time =    1.000,"P-49-1",           391,          200.,           75.,            0.,NA,NA,"",   2.22406E+06,   2.54242E+06,   2.54242E+06
C:/temp/Job-49.odb,Step-1,Increment      1: Step Time =    1.000,"P-49-1",           392,          200.,           65.,            0.,NA,NA,"",   1.53239E+06,   1.76421E+06,   1.76421E+06
C:/temp/Job-49.odb,Step-1,Increment      1: Step Time =    1.000,"P-49-1",           393,          200.,           55.,            0.,NA,NA,"",   1.03783E+06,   1.16920E+06,   1.16920E+06
C:/temp/Job-49.odb,Step-1,Increment      1: Step Time =    1.000,"P-49-1",           394,          200.,           45.,            0.,NA,NA,"",   909.119E+03,   1.03276E+06,   1.03276E+06
C:/temp/Job-49.odb,Step-1,Increment      1: Step Time =    1.000,"P-49-1",           395,          200.,           35.,            0.,NA,NA,"",   982.986E+03,   1.01467E+06,   1.01467E+06
C:/temp/Job-49.odb,Step-1,Increment      1: Step Time =    1.000,"P-49-1",           396,          200.,           25.,            0.,NA,NA,"",   1.03524E+06,   1.00786E+06,   1.00786E+06
C:/temp/Job-49.odb,Step-1,Increment      1: Step Time =    1.000,"P-49-1",           397,          200.,           15.,            0.,NA,NA,"",   1.02767E+06,   1.00267E+06,   1.00267E+06
C:/temp/Job-49.odb,Step-1,Increment      1: Step Time =    1.000,"P-49-1",           398,          200.,            5.,            0.,NA,NA,"",   1.00213E+06,   996.722E+03,   996.722E+03
C:/temp/Job-49.odb,Step-1,Increment      1: Step Time =    1.000,"P-49-1",           399,            5.,          200.,            0.,NA,NA,"",   3.66895E+06,   3.75261E+06,   3.75261E+06
C:/temp/Job-49.odb,Step-1,Increment      1: Step Time =    1.000,"P-49-1",           400,           15.,          200.,            0.,NA,NA,"",   3.34168E+06,   3.35114E+06,   3.35114E+06
C:/temp/Job-49.odb,Step-1,Increment      1: Step Time =    1.000,"P-49-1",           401,           25.,          200.,            0.,NA,NA,"",   3.32360E+06,   3.32400E+06,   3.32400E+06
C:/temp/Job-49.odb,Step-1,Increment      1: Step Time =    1.000,"P-49-1",           402,           35.,          200.,            0.,NA,NA,"",   3.28998E+06,   3.28825E+06,   3.28825E+06
C:/temp/Job-49.odb,Step-1,Increment      1: Step Time =    1.000,"P-49-1",           403,           45.,          200.,            0.,NA,NA,"",   3.17449E+06,   3.17013E+06,   3.17013E+06
C:/temp/Job-49.odb,Step-1,Increment      1: Step Time =    1.000,"P-49-1",           404,           55.,          200.,            0.,NA,NA,"",   2.90347E+06,   2.89695E+06,   2.89695E+06
C:/temp/Job-49.odb,Step-1,Increment      1: Step Time =    1.000,"P-49-1",           405,           65.,          200.,            0.,NA,NA,"",   2.44700E+06,   2.43756E+06,   2.43756E+06
C:/temp/Job-49.odb,Step-1,Increment      1: Step Time =    1.000,"P-49-1",           406,           75.,          200.,            0.,NA,NA,"",   1.82899E+06,   1.81624E+06,   1.81624E+06
C:/temp/Job-49.odb,Step-1,Increment      1: Step Time =    1.000,"P-49-1",           407,           85.,          200.,            0.,NA,NA,"",   1.12517E+06,   1.11016E+06,   1.11016E+06
C:/temp/Job-49.odb,Step-1,Increment      1: Step Time =    1.000,"P-49-1",           408,           95.,          200.,            0.,NA,NA,"",   490.375E+03,   465.816E+03,   465.816E+03
C:/temp/Job-49.odb,Step-1,Increment      1: Step Time =    1.000,"P-49-1",           409,          105.,          200.,            0.,NA,NA,"",   213.619E+03,  -34.9383E+03,  -34.9383E+03
C:/temp/Job-49.odb,Step-1,Increment      1: Step Time =    1.000,"P-49-1",           410,          115.,          200.,            0.,NA,NA,"",   321.775E+03,  -309.459E+03,  -309.459E+03
C:/temp/Job-49.odb,Step-1,Increment      1: Step Time =    1.000,"P-49-1",           411,          125.,          200.,            0.,NA,NA,"",   277.308E+03,  -268.146E+03,  -268.146E+03
C:/temp/Job-49.odb,Step-1,Increment      1: Step Time =    1.000,"P-49-1",           412,          135.,          200.,            0.,NA,NA,"",   144.603E+03,  -20.7920E+03,  -20.7920E+03
C:/temp/Job-49.odb,Step-1,Increment      1: Step Time =    1.000,"P-49-1",           413,          145.,          200.,            0.,NA,NA,"",   297.343E+03,   285.975E+03,   285.975E+03
C:/temp/Job-49.odb,Step-1,Increment      1: Step Time =    1.000,"P-49-1",           414,          155.,          200.,            0.,NA,NA,"",   552.598E+03,   547.177E+03,   547.177E+03
C:/temp/Job-49.odb,Step-1,Increment      1: Step Time =    1.000,"P-49-1",           415,          165.,          200.,            0.,NA,NA,"",   743.728E+03,   740.535E+03,   740.535E+03
C:/temp/Job-49.odb,Step-1,Increment      1: Step Time =    1.000,"P-49-1",           416,          175.,          200.,            0.,NA,NA,"",   863.987E+03,   862.522E+03,   862.522E+03
C:/temp/Job-49.odb,Step-1,Increment      1: Step Time =    1.000,"P-49-1",           417,          185.,          200.,            0.,NA,NA,"",   941.307E+03,   940.514E+03,   940.514E+03
C:/temp/Job-49.odb,Step-1,Increment      1: Step Time =    1.000,"P-49-1",           418,          195.,          200.,            0.,NA,NA,"",   991.129E+03,   989.266E+03,   989.266E+03
C:/temp/Job-49.odb,Step-1,Increment      1: Step Time =    1.000,"P-49-1",           419,            0.,            5.,            0.,NA,NA,"",   3.37679E+06,   3.61159E+06,   3.61159E+06
C:/temp/Job-49.odb,Step-1,Increment      1: Step Time =    1.000,"P-49-1",           420,            0.,           15.,            0.,NA,NA,"",   2.33455E+06,   2.58453E+06,   2.58453E+06
C:/temp/Job-49.odb,Step-1,Increment      1: Step Time =    1.000,"P-49-1",           421,            0.,           25.,            0.,NA,NA,"",   1.74192E+06,   1.94431E+06,   1.94431E+06
C:/temp/Job-49.odb,Step-1,Increment      1: Step Time =    1.000,"P-49-1",           422,            0.,           35.,            0.,NA,NA,"",   1.22351E+06,   1.36913E+06,   1.36913E+06
C:/temp/Job-49.odb,Step-1,Increment      1: Step Time =    1.000,"P-49-1",           423,            0.,           45.,            0.,NA,NA,"",   788.121E+03,   878.940E+03,   878.940E+03
C:/temp/Job-49.odb,Step-1,Increment      1: Step Time =    1.000,"P-49-1",           424,            0.,           55.,            0.,NA,NA,"",   417.466E+03,   457.326E+03,   457.326E+03
C:/temp/Job-49.odb,Step-1,Increment      1: Step Time =    1.000,"P-49-1",           425,            0.,           65.,            0.,NA,NA,"",   162.333E+03,   138.207E+03,   138.207E+03
C:/temp/Job-49.odb,Step-1,Increment      1: Step Time =    1.000,"P-49-1",           426,            0.,           75.,            0.,NA,NA,"",   169.629E+03,  -179.317E+03,  -179.317E+03
C:/temp/Job-49.odb,Step-1,Increment      1: Step Time =    1.000,"P-49-1",           427,            0.,           85.,            0.,NA,NA,"",   261.050E+03,  -292.683E+03,  -292.683E+03
C:/temp/Job-49.odb,Step-1,Increment      1: Step Time =    1.000,"P-49-1",           428,            0.,           95.,            0.,NA,NA,"",   305.541E+03,  -345.886E+03,  -345.886E+03
C:/temp/Job-49.odb,Step-1,Increment      1: Step Time =    1.000,"P-49-1",           429,            0.,          105.,            0.,NA,NA,"",   305.274E+03,  -345.136E+03,  -345.136E+03
C:/temp/Job-49.odb,Step-1,Increment      1: Step Time =    1.000,"P-49-1",           430,            0.,          115.,            0.,NA,NA,"",   265.005E+03,  -297.535E+03,  -297.535E+03
C:/temp/Job-49.odb,Step-1,Increment      1: Step Time =    1.000,"P-49-1",           431,            0.,          125.,            0.,NA,NA,"",   169.458E+03,  -177.318E+03,  -177.318E+03
C:/temp/Job-49.odb,Step-1,Increment      1: Step Time =    1.000,"P-49-1",           432,            0.,          135.,            0.,NA,NA,"",   167.334E+03,   148.545E+03,   148.545E+03
C:/temp/Job-49.odb,Step-1,Increment      1: Step Time =    1.000,"P-49-1",           433,            0.,          145.,            0.,NA,NA,"",   430.657E+03,   473.735E+03,   473.735E+03
C:/temp/Job-49.odb,Step-1,Increment      1: Step Time =    1.000,"P-49-1",           434,            0.,          155.,            0.,NA,NA,"",   801.908E+03,   895.665E+03,   895.665E+03
C:/temp/Job-49.odb,Step-1,Increment      1: Step Time =    1.000,"P-49-1",           435,            0.,          165.,            0.,NA,NA,"",   1.24039E+06,   1.38957E+06,   1.38957E+06
C:/temp/Job-49.odb,Step-1,Increment      1: Step Time =    1.000,"P-49-1",           436,            0.,          175.,            0.,NA,NA,"",   1.74325E+06,   1.94993E+06,   1.94993E+06
C:/temp/Job-49.odb,Step-1,Increment      1: Step Time =    1.000,"P-49-1",           437,            0.,          185.,            0.,NA,NA,"",   2.33746E+06,   2.59369E+06,   2.59369E+06
C:/temp/Job-49.odb,Step-1,Increment      1: Step Time =    1.000,"P-49-1",           438,            0.,          195.,            0.,NA,NA,"",   3.36725E+06,   3.60315E+06,   3.60315E+06
C:/temp/Job-49.odb,Step-1,Increment      1: Step Time =    1.000,"P-49-1",           439,       36.2495,       78.8066,            0.,NA,NA,"",   858.219E+03,  -891.498E+03,  -891.498E+03
C:/temp/Job-49.odb,Step-1,Increment      1: Step Time =    1.000,"P-49-1",           440,       157.653,       64.7475,            0.,NA,NA,"",   1.39195E+06,   860.741E+03,   860.741E+03
C:/temp/Job-49.odb,Step-1,Increment      1: Step Time =    1.000,"P-49-1",           441,       42.5240,       70.2110,            0.,NA,NA,"",   1.14076E+06,  -1.16038E+06,  -1.16038E+06
C:/temp/Job-49.odb,Step-1,Increment      1: Step Time =    1.000,"P-49-1",           442,       100.071,       165.228,            0.,NA,NA,"",   5.06636E+06,   5.18144E+06,   5.18144E+06
C:/temp/Job-49.odb,Step-1,Increment      1: Step Time =    1.000,"P-49-1",           443,       166.407,       112.416,            0.,NA,NA,"",   1.96599E+06,  -1.92390E+06,  -1.92390E+06
C:/temp/Job-49.odb,Step-1,Increment      1: Step Time =    1.000,"P-49-1",           444,       139.450,       152.077,            0.,NA,NA,"",   3.30547E+06,   3.36015E+06,   3.36015E+06
C:/temp/Job-49.odb,Step-1,Increment      1: Step Time =    1.000,"P-49-1",           445,       46.1018,       136.198,            0.,NA,NA,"",   1.13540E+06,  -1.15077E+06,  -1.15077E+06
C:/temp/Job-49.odb,Step-1,Increment      1: Step Time =    1.000,"P-49-1",           446,       153.127,       60.6071,            0.,NA,NA,"",   1.54454E+06,   1.39147E+06,   1.39147E+06
C:/temp/Job-49.odb,Step-1,Increment      1: Step Time =    1.000,"P-49-1",           447,       89.5860,       164.411,            0.,NA,NA,"",   4.17610E+06,   4.24486E+06,   4.24486E+06
C:/temp/Job-49.odb,Step-1,Increment      1: Step Time =    1.000,"P-49-1",           448,       164.908,       90.7502,            0.,NA,NA,"",   2.44294E+06,   -2.4592E+06,   -2.4592E+06
C:/temp/Job-49.odb,Step-1,Increment      1: Step Time =    1.000,"P-49-1",           449,       155.058,       136.780,            0.,NA,NA,"",   1.30730E+06,   1.10051E+06,   1.10051E+06
C:/temp/Job-49.odb,Step-1,Increment      1: Step Time =    1.000,"P-49-1",           450,       98.3760,       35.0424,            0.,NA,NA,"",   5.00844E+06,   5.10890E+06,   5.10890E+06
C:/temp/Job-49.odb,Step-1,Increment      1: Step Time =    1.000,"P-49-1",           451,       157.112,       131.883,            0.,NA,NA,"",   1.04560E+06,   36.6701E+03,   36.6701E+03
C:/temp/Job-49.odb,Step-1,Increment      1: Step Time =    1.000,"P-49-1",           452,       44.8123,       65.8635,            0.,NA,NA,"",   1.14437E+06,  -1.16238E+06,  -1.16238E+06
C:/temp/Job-49.odb,Step-1,Increment      1: Step Time =    1.000,"P-49-1",           453,       161.429,       122.669,            0.,NA,NA,"",   1.56144E+06,  -1.43842E+06,  -1.43842E+06
C:/temp/Job-49.odb,Step-1,Increment      1: Step Time =    1.000,"P-49-1",           454,       118.155,       37.3183,            0.,NA,NA,"",   5.21509E+06,   5.34202E+06,   5.34202E+06
C:/temp/Job-49.odb,Step-1,Increment      1: Step Time =    1.000,"P-49-1",           455,       69.2652,       158.609,            0.,NA,NA,"",   1.72916E+06,   1.62371E+06,   1.62371E+06
C:/temp/Job-49.odb,Step-1,Increment      1: Step Time =    1.000,"P-49-1",           456,       165.425,       100.960,            0.,NA,NA,"",   2.67633E+06,  -2.71743E+06,  -2.71743E+06
C:/temp/Job-49.odb,Step-1,Increment      1: Step Time =    1.000,"P-49-1",           457,       85.4743,       35.5452,            0.,NA,NA,"",   3.68206E+06,   3.72036E+06,   3.72036E+06
C:/temp/Job-49.odb,Step-1,Increment      1: Step Time =    1.000,"P-49-1",           458,       107.993,       35.3680,            0.,NA,NA,"",   5.40305E+06,   5.53577E+06,   5.53577E+06
C:/temp/Job-49.odb,Step-1,Increment      1: Step Time =    1.000,"P-49-1",           459,       52.3821,       144.117,            0.,NA,NA,"",   926.204E+03,  -893.274E+03,  -893.274E+03
C:/temp/Job-49.odb,Step-1,Increment      1: Step Time =    1.000,"P-49-1",           460,       35.6048,       85.2350,            0.,NA,NA,"",   822.597E+03,  -855.840E+03,  -855.840E+03
C:/temp/Job-49.odb,Step-1,Increment      1: Step Time =    1.000,"P-49-1",           461,       110.726,       164.743,            0.,NA,NA,"",   5.29662E+06,   5.44041E+06,   5.44041E+06
C:/temp/Job-49.odb,Step-1,Increment      1: Step Time =    1.000,"P-49-1",           462,       75.6429,       38.6849,            0.,NA,NA,"",   2.49738E+06,   2.46241E+06,   2.46241E+06
C:/temp/Job-49.odb,Step-1,Increment      1: Step Time =    1.000,"P-49-1",           463,       115.889,       163.506,            0.,NA,NA,"",   5.23473E+06,   5.37456E+06,   5.37456E+06
C:/temp/Job-49.odb,Step-1,Increment      1: Step Time =    1.000,"P-49-1",           464,       164.202,       85.6716,            0.,NA,NA,"",   2.15942E+06,  -2.13611E+06,  -2.13611E+06
C:/temp/Job-49.odb,Step-1,Increment      1: Step Time =    1.000,"P-49-1",           465,       135.223,       154.981,            0.,NA,NA,"",   3.81237E+06,   3.89412E+06,   3.89412E+06
C:/temp/Job-49.odb,Step-1,Increment      1: Step Time =    1.000,"P-49-1",           466,       57.7621,       50.0359,            0.,NA,NA,"",   763.542E+03,  -231.489E+03,  -231.489E+03
C:/temp/Job-49.odb,Step-1,Increment      1: Step Time =    1.000,"P-49-1",           467,       130.790,       157.793,            0.,NA,NA,"",   4.26216E+06,   4.36722E+06,   4.36722E+06
C:/temp/Job-49.odb,Step-1,Increment      1: Step Time =    1.000,"P-49-1",           468,       62.9868,       156.738,            0.,NA,NA,"",   1.34051E+06,   1.13545E+06,   1.13545E+06
C:/temp/Job-49.odb,Step-1,Increment      1: Step Time =    1.000,"P-49-1",           469,       36.6779,       116.527,            0.,NA,NA,"",   888.222E+03,  -916.597E+03,  -916.597E+03
C:/temp/Job-49.odb,Step-1,Increment      1: Step Time =    1.000,"P-49-1",           470,       34.9467,       106.405,            0.,NA,NA,"",   729.420E+03,  -760.549E+03,  -760.549E+03
C:/temp/Job-49.odb,Step-1,Increment      1: Step Time =    1.000,"P-49-1",           471,       34.3903,       101.186,            0.,NA,NA,"",   691.330E+03,  -724.791E+03,  -724.791E+03
C:/temp/Job-49.odb,Step-1,Increment      1: Step Time =    1.000,"P-49-1",           472,       74.4971,       160.350,            0.,NA,NA,"",   2.29217E+06,   2.25157E+06,   2.25157E+06
C:/temp/Job-49.odb,Step-1,Increment      1: Step Time =    1.000,"P-49-1",           473,       35.7667,       111.520,            0.,NA,NA,"",   806.927E+03,  -834.138E+03,  -834.138E+03
C:/temp/Job-49.odb,Step-1,Increment      1: Step Time =    1.000,"P-49-1",           474,       128.996,       39.3133,            0.,NA,NA,"",   4.14479E+06,   4.28014E+06,   4.28014E+06
C:/temp/Job-49.odb,Step-1,Increment      1: Step Time =    1.000,"P-49-1",           475,       70.5674,       40.7544,            0.,NA,NA,"",   1.88894E+06,   1.80833E+06,   1.80833E+06
C:/temp/Job-49.odb,Step-1,Increment      1: Step Time =    1.000,"P-49-1",           476,       142.574,       49.7032,            0.,NA,NA,"",   2.91450E+06,   2.94991E+06,   2.94991E+06
C:/temp/Job-49.odb,Step-1,Increment      1: Step Time =    1.000,"P-49-1",           477,       89.6304,       33.9956,            0.,NA,NA,"",   3.99342E+06,   4.07164E+06,   4.07164E+06
C:/temp/Job-49.odb,Step-1,Increment      1: Step Time =    1.000,"P-49-1",           478,       143.585,       149.074,            0.,NA,NA,"",   2.77967E+06,   2.79778E+06,   2.79778E+06
C:/temp/Job-49.odb,Step-1,Increment      1: Step Time =    1.000,"P-49-1",           479,       34.6031,       95.9847,            0.,NA,NA,"",   703.277E+03,  -735.778E+03,  -735.778E+03
C:/temp/Job-49.odb,Step-1,Increment      1: Step Time =    1.000,"P-49-1",           480,       120.985,       162.044,            0.,NA,NA,"",   5.00733E+06,   5.14064E+06,   5.14064E+06
C:/temp/Job-49.odb,Step-1,Increment      1: Step Time =    1.000,"P-49-1",           481,       113.069,       36.2449,            0.,NA,NA,"",   5.40563E+06,   5.53561E+06,   5.53561E+06
C:/temp/Job-49.odb,Step-1,Increment      1: Step Time =    1.000,"P-49-1",           482,       160.837,       75.8339,            0.,NA,NA,"",   1.44203E+06,  -1.28727E+06,  -1.28727E+06
C:/temp/Job-49.odb,Step-1,Increment      1: Step Time =    1.000,"P-49-1",           483,       139.047,       45.2446,            0.,NA,NA,"",   3.32884E+06,   3.39686E+06,   3.39686E+06
C:/temp/Job-49.odb,Step-1,Increment      1: Step Time =    1.000,"P-49-1",           484,       43.2088,       131.937,            0.,NA,NA,"",   1.13216E+06,  -1.15300E+06,  -1.15300E+06
C:/temp/Job-49.odb,Step-1,Increment      1: Step Time =    1.000,"P-49-1",           485,       126.073,       160.328,            0.,NA,NA,"",   4.65333E+06,   4.77738E+06,   4.77738E+06
C:/temp/Job-49.odb,Step-1,Increment      1: Step Time =    1.000,"P-49-1",           486,       35.0571,       90.7059,            0.,NA,NA,"",   757.114E+03,  -788.013E+03,  -788.013E+03
C:/temp/Job-49.odb,Step-1,Increment      1: Step Time =    1.000,"P-49-1",           487,       80.6901,       37.0496,            0.,NA,NA,"",   3.12944E+06,   3.13230E+06,   3.13230E+06
C:/temp/Job-49.odb,Step-1,Increment      1: Step Time =    1.000,"P-49-1",           488,       40.3954,       127.420,            0.,NA,NA,"",   1.05929E+06,  -1.08511E+06,  -1.08511E+06
C:/temp/Job-49.odb,Step-1,Increment      1: Step Time =    1.000,"P-49-1",           489,       37.2799,       122.252,            0.,NA,NA,"",   909.878E+03,  -942.127E+03,  -942.127E+03
C:/temp/Job-49.odb,Step-1,Increment      1: Step Time =    1.000,"P-49-1",           490,       165.649,       106.202,            0.,NA,NA,"",   2.45650E+06,  -2.48766E+06,  -2.48766E+06
C:/temp/Job-49.odb,Step-1,Increment      1: Step Time =    1.000,"P-49-1",           491,       47.3583,       61.5180,            0.,NA,NA,"",   1.07686E+06,  -1.08256E+06,  -1.08256E+06
C:/temp/Job-49.odb,Step-1,Increment      1: Step Time =    1.000,"P-49-1",           492,       84.4520,       163.448,            0.,NA,NA,"",   3.57993E+06,   3.62042E+06,   3.62042E+06
C:/temp/Job-49.odb,Step-1,Increment      1: Step Time =    1.000,"P-49-1",           493,       49.1754,       140.242,            0.,NA,NA,"",   1.06431E+06,  -1.06655E+06,  -1.06655E+06
C:/temp/Job-49.odb,Step-1,Increment      1: Step Time =    1.000,"P-49-1",           494,       152.791,       142.578,            0.,NA,NA,"",   1.86825E+06,   1.73020E+06,   1.73020E+06
C:/temp/Job-49.odb,Step-1,Increment      1: Step Time =    1.000,"P-49-1",           495,       94.8016,       164.990,            0.,NA,NA,"",   4.68959E+06,   4.78470E+06,   4.78470E+06
C:/temp/Job-49.odb,Step-1,Increment      1: Step Time =    1.000,"P-49-1",           496,       123.255,       38.3577,            0.,NA,NA,"",   4.80590E+06,   4.93678E+06,   4.93678E+06
C:/temp/Job-49.odb,Step-1,Increment      1: Step Time =    1.000,"P-49-1",           497,       79.4590,       162.022,            0.,NA,NA,"",   2.93685E+06,   2.94278E+06,   2.94278E+06
C:/temp/Job-49.odb,Step-1,Increment      1: Step Time =    1.000,"P-49-1",           498,       165.250,       95.8806,            0.,NA,NA,"",   2.64063E+06,  -2.68072E+06,  -2.68072E+06
C:/temp/Job-49.odb,Step-1,Increment      1: Step Time =    1.000,"P-49-1",           499,       162.629,       80.7278,            0.,NA,NA,"",   1.81910E+06,  -1.74898E+06,  -1.74898E+06
C:/temp/Job-49.odb,Step-1,Increment      1: Step Time =    1.000,"P-49-1",           500,       159.213,       127.266,            0.,NA,NA,"",   1.18828E+06,  -967.018E+03,  -967.018E+03
C:/temp/Job-49.odb,Step-1,Increment      1: Step Time =    1.000,"P-49-1",           501,       149.380,       56.9729,            0.,NA,NA,"",   1.94573E+06,   1.89208E+06,   1.89208E+06
C:/temp/Job-49.odb,Step-1,Increment      1: Step Time =    1.000,"P-49-1",           502,       61.8526,       46.7455,            0.,NA,NA,"",   879.048E+03,   527.759E+03,   527.759E+03
C:/temp/Job-49.odb,Step-1,Increment      1: Step Time =    1.000,"P-49-1",           503,       163.755,       117.911,            0.,NA,NA,"",   1.89096E+06,  -1.81829E+06,  -1.81829E+06
C:/temp/Job-49.odb,Step-1,Increment      1: Step Time =    1.000,"P-49-1",           504,       105.392,       165.206,            0.,NA,NA,"",   5.25710E+06,   5.38953E+06,   5.38953E+06
C:/temp/Job-49.odb,Step-1,Increment      1: Step Time =    1.000,"P-49-1",           505,       194.726,       164.531,            0.,NA,NA,"",   1.02254E+06,   1.06273E+06,   1.06273E+06
C:/temp/Job-49.odb,Step-1,Increment      1: Step Time =    1.000,"P-49-1",           506,       195.181,       154.540,            0.,NA,NA,"",   996.946E+03,   1.11517E+06,   1.11517E+06
C:/temp/Job-49.odb,Step-1,Increment      1: Step Time =    1.000,"P-49-1",           507,       194.864,       5.11778,            0.,NA,NA,"",   996.227E+03,   991.572E+03,   991.572E+03
C:/temp/Job-49.odb,Step-1,Increment      1: Step Time =    1.000,"P-49-1",           508,       154.905,       195.203,            0.,NA,NA,"",   691.041E+03,   675.772E+03,   675.772E+03
C:/temp/Job-49.odb,Step-1,Increment      1: Step Time =    1.000,"P-49-1",           509,       145.011,       195.147,            0.,NA,NA,"",   511.680E+03,   490.717E+03,   490.717E+03
C:/temp/Job-49.odb,Step-1,Increment      1: Step Time =    1.000,"P-49-1",           510,       145.360,       5.05774,            0.,NA,NA,"",   521.492E+03,   499.422E+03,   499.422E+03
C:/temp/Job-49.odb,Step-1,Increment      1: Step Time =    1.000,"P-49-1",           511,       154.941,       4.34569,            0.,NA,NA,"",   678.736E+03,   665.062E+03,   665.062E+03
C:/temp/Job-49.odb,Step-1,Increment      1: Step Time =    1.000,"P-49-1",           512,       164.533,       5.04718,            0.,NA,NA,"",   830.971E+03,   820.634E+03,   820.634E+03
C:/temp/Job-49.odb,Step-1,Increment      1: Step Time =    1.000,"P-49-1",           513,       105.306,       4.47421,            0.,NA,NA,"",   427.557E+03,   222.158E+03,   222.158E+03
C:/temp/Job-49.odb,Step-1,Increment      1: Step Time =    1.000,"P-49-1",           514,       4.63951,       55.3978,            0.,NA,NA,"",   388.512E+03,   430.552E+03,   430.552E+03
C:/temp/Job-49.odb,Step-1,Increment      1: Step Time =    1.000,"P-49-1",           515,       4.89746,       45.5803,            0.,NA,NA,"",   773.837E+03,   860.736E+03,   860.736E+03
C:/temp/Job-49.odb,Step-1,Increment      1: Step Time =    1.000,"P-49-1",           516,       5.13511,       35.6737,            0.,NA,NA,"",   1.22624E+06,   1.35999E+06,   1.35999E+06
C:/temp/Job-49.odb,Step-1,Increment      1: Step Time =    1.000,"P-49-1",           517,       44.8417,       4.88739,            0.,NA,NA,"",   3.05256E+06,   3.03772E+06,   3.03772E+06
C:/temp/Job-49.odb,Step-1,Increment      1: Step Time =    1.000,"P-49-1",           518,       54.8536,       4.89787,            0.,NA,NA,"",   2.82457E+06,   2.80301E+06,   2.80301E+06
C:/temp/Job-49.odb,Step-1,Increment      1: Step Time =    1.000,"P-49-1",           519,       5.06629,       135.560,            0.,NA,NA,"",   142.960E+03,   136.681E+03,   136.681E+03
C:/temp/Job-49.odb,Step-1,Increment      1: Step Time =    1.000,"P-49-1",           520,       5.63144,       125.314,            0.,NA,NA,"",   170.981E+03,  -179.070E+03,  -179.070E+03
C:/temp/Job-49.odb,Step-1,Increment      1: Step Time =    1.000,"P-49-1",           521,       4.82822,       145.483,            0.,NA,NA,"",   420.803E+03,   467.475E+03,   467.475E+03
C:/temp/Job-49.odb,Step-1,Increment      1: Step Time =    1.000,"P-49-1",           522,       35.3149,       194.805,            0.,NA,NA,"",   3.14648E+06,   3.13750E+06,   3.13750E+06
C:/temp/Job-49.odb,Step-1,Increment      1: Step Time =    1.000,"P-49-1",           523,       25.2239,       194.779,            0.,NA,NA,"",   3.19156E+06,   3.18976E+06,   3.18976E+06
C:/temp/Job-49.odb,Step-1,Increment      1: Step Time =    1.000,"P-49-1",           524,       64.8480,       195.218,            0.,NA,NA,"",   2.46619E+06,   2.43542E+06,   2.43542E+06
C:/temp/Job-49.odb,Step-1,Increment      1: Step Time =    1.000,"P-49-1",           525,       115.026,       194.824,            0.,NA,NA,"",   403.625E+03,   103.913E+03,   103.913E+03
C:/temp/Job-49.odb,Step-1,Increment      1: Step Time =    1.000,"P-49-1",           526,       104.962,       194.680,            0.,NA,NA,"",   515.615E+03,   389.724E+03,   389.724E+03
C:/temp/Job-49.odb,Step-1,Increment      1: Step Time =    1.000,"P-49-1",           527,       45.3238,       195.156,            0.,NA,NA,"",   3.04609E+06,   3.03201E+06,   3.03201E+06
C:/temp/Job-49.odb,Step-1,Increment      1: Step Time =    1.000,"P-49-1",           528,       5.32487,       10.1152,            0.,NA,NA,"",   2.84195E+06,   3.04074E+06,   3.04074E+06
C:/temp/Job-49.odb,Step-1,Increment      1: Step Time =    1.000,"P-49-1",           529,       5.61992,       15.2717,            0.,NA,NA,"",   2.42025E+06,   2.62544E+06,   2.62544E+06
C:/temp/Job-49.odb,Step-1,Increment      1: Step Time =    1.000,"P-49-1",           530,       5.64439,       25.5362,            0.,NA,NA,"",   1.77555E+06,   1.95110E+06,   1.95110E+06
C:/temp/Job-49.odb,Step-1,Increment      1: Step Time =    1.000,"P-49-1",           531,       15.1765,       4.87825,            0.,NA,NA,"",   3.24400E+06,   3.25743E+06,   3.25743E+06
C:/temp/Job-49.odb,Step-1,Increment      1: Step Time =    1.000,"P-49-1",           532,       25.0731,       4.64483,            0.,NA,NA,"",   3.21436E+06,   3.21343E+06,   3.21343E+06
C:/temp/Job-49.odb,Step-1,Increment      1: Step Time =    1.000,"P-49-1",           533,       34.9453,       4.63652,            0.,NA,NA,"",   3.17447E+06,   3.16645E+06,   3.16645E+06
C:/temp/Job-49.odb,Step-1,Increment      1: Step Time =    1.000,"P-49-1",           534,       64.8209,       4.62115,            0.,NA,NA,"",   2.45832E+06,   2.42941E+06,   2.42941E+06
C:/temp/Job-49.odb,Step-1,Increment      1: Step Time =    1.000,"P-49-1",           535,       74.9060,       4.72520,            0.,NA,NA,"",   1.94995E+06,   1.91336E+06,   1.91336E+06
C:/temp/Job-49.odb,Step-1,Increment      1: Step Time =    1.000,"P-49-1",           536,       85.0836,       4.91933,            0.,NA,NA,"",   1.38219E+06,   1.33795E+06,   1.33795E+06
C:/temp/Job-49.odb,Step-1,Increment      1: Step Time =    1.000,"P-49-1",           537,       95.2953,       4.75473,            0.,NA,NA,"",   789.074E+03,   753.368E+03,   753.368E+03
C:/temp/Job-49.odb,Step-1,Increment      1: Step Time =    1.000,"P-49-1",           538,       115.211,       4.42313,            0.,NA,NA,"",   344.921E+03,   4.75582E+03,   4.75582E+03
C:/temp/Job-49.odb,Step-1,Increment      1: Step Time =    1.000,"P-49-1",           539,       125.154,       4.73789,            0.,NA,NA,"",   341.727E+03,   62.5080E+03,   62.5080E+03
C:/temp/Job-49.odb,Step-1,Increment      1: Step Time =    1.000,"P-49-1",           540,       135.212,       5.12860,            0.,NA,NA,"",   379.089E+03,   286.191E+03,   286.191E+03
C:/temp/Job-49.odb,Step-1,Increment      1: Step Time =    1.000,"P-49-1",           541,       174.740,       5.04931,            0.,NA,NA,"",   913.530E+03,   907.994E+03,   907.994E+03
C:/temp/Job-49.odb,Step-1,Increment      1: Step Time =    1.000,"P-49-1",           542,       184.791,       5.13905,            0.,NA,NA,"",   962.136E+03,   959.783E+03,   959.783E+03
C:/temp/Job-49.odb,Step-1,Increment      1: Step Time =    1.000,"P-49-1",           543,       194.665,       15.3516,            0.,NA,NA,"",   1.02642E+06,   1.00889E+06,   1.00889E+06
C:/temp/Job-49.odb,Step-1,Increment      1: Step Time =    1.000,"P-49-1",           544,       194.956,       25.4716,            0.,NA,NA,"",   1.03849E+06,   1.02585E+06,   1.02585E+06
C:/temp/Job-49.odb,Step-1,Increment      1: Step Time =    1.000,"P-49-1",           545,       195.326,       35.3819,            0.,NA,NA,"",   1.00822E+06,   1.04806E+06,   1.04806E+06
C:/temp/Job-49.odb,Step-1,Increment      1: Step Time =    1.000,"P-49-1",           546,       195.327,       45.2003,            0.,NA,NA,"",   986.012E+03,   1.10402E+06,   1.10402E+06
C:/temp/Job-49.odb,Step-1,Increment      1: Step Time =    1.000,"P-49-1",           547,       195.297,       55.0210,            0.,NA,NA,"",   1.12672E+06,   1.27542E+06,   1.27542E+06
C:/temp/Job-49.odb,Step-1,Increment      1: Step Time =    1.000,"P-49-1",           548,       195.088,       64.9023,            0.,NA,NA,"",   1.52546E+06,   1.74653E+06,   1.74653E+06
C:/temp/Job-49.odb,Step-1,Increment      1: Step Time =    1.000,"P-49-1",           549,       194.743,       74.8592,            0.,NA,NA,"",   2.03449E+06,   2.31573E+06,   2.31573E+06
C:/temp/Job-49.odb,Step-1,Increment      1: Step Time =    1.000,"P-49-1",           550,       194.533,       84.9227,            0.,NA,NA,"",   2.46743E+06,   2.78506E+06,   2.78506E+06
C:/temp/Job-49.odb,Step-1,Increment      1: Step Time =    1.000,"P-49-1",           551,       194.656,       95.1226,            0.,NA,NA,"",   2.73714E+06,   3.07334E+06,   3.07334E+06
C:/temp/Job-49.odb,Step-1,Increment      1: Step Time =    1.000,"P-49-1",           552,       194.809,       105.260,            0.,NA,NA,"",   2.77286E+06,   3.11280E+06,   3.11280E+06
C:/temp/Job-49.odb,Step-1,Increment      1: Step Time =    1.000,"P-49-1",           553,       195.084,       115.189,            0.,NA,NA,"",   2.53041E+06,   2.85488E+06,   2.85488E+06
C:/temp/Job-49.odb,Step-1,Increment      1: Step Time =    1.000,"P-49-1",           554,       195.256,       125.043,            0.,NA,NA,"",   2.07263E+06,   2.36236E+06,   2.36236E+06
C:/temp/Job-49.odb,Step-1,Increment      1: Step Time =    1.000,"P-49-1",           555,       195.464,       134.882,            0.,NA,NA,"",   1.53499E+06,   1.76144E+06,   1.76144E+06
C:/temp/Job-49.odb,Step-1,Increment      1: Step Time =    1.000,"P-49-1",           556,       195.624,       144.682,            0.,NA,NA,"",   1.12091E+06,   1.27164E+06,   1.27164E+06
C:/temp/Job-49.odb,Step-1,Increment      1: Step Time =    1.000,"P-49-1",           557,       195.086,       174.880,            0.,NA,NA,"",   1.03969E+06,   1.02548E+06,   1.02548E+06
C:/temp/Job-49.odb,Step-1,Increment      1: Step Time =    1.000,"P-49-1",           558,       164.720,       195.180,            0.,NA,NA,"",   825.955E+03,   816.246E+03,   816.246E+03
C:/temp/Job-49.odb,Step-1,Increment      1: Step Time =    1.000,"P-49-1",           559,       195.015,       184.935,            0.,NA,NA,"",   1.02558E+06,   1.00682E+06,   1.00682E+06
C:/temp/Job-49.odb,Step-1,Increment      1: Step Time =    1.000,"P-49-1",           560,       174.667,       194.919,            0.,NA,NA,"",   911.600E+03,   906.739E+03,   906.739E+03
C:/temp/Job-49.odb,Step-1,Increment      1: Step Time =    1.000,"P-49-1",           561,       194.950,       194.922,            0.,NA,NA,"",   996.385E+03,   991.597E+03,   991.597E+03
C:/temp/Job-49.odb,Step-1,Increment      1: Step Time =    1.000,"P-49-1",           562,       184.807,       194.761,            0.,NA,NA,"",   962.367E+03,   959.914E+03,   959.914E+03
C:/temp/Job-49.odb,Step-1,Increment      1: Step Time =    1.000,"P-49-1",           563,       135.040,       195.032,            0.,NA,NA,"",   363.486E+03,   271.963E+03,   271.963E+03
C:/temp/Job-49.odb,Step-1,Increment      1: Step Time =    1.000,"P-49-1",           564,       125.071,       194.963,            0.,NA,NA,"",   365.040E+03,   98.9006E+03,   98.9006E+03
C:/temp/Job-49.odb,Step-1,Increment      1: Step Time =    1.000,"P-49-1",           565,       94.9230,       194.721,            0.,NA,NA,"",   880.934E+03,   842.512E+03,   842.512E+03
C:/temp/Job-49.odb,Step-1,Increment      1: Step Time =    1.000,"P-49-1",           566,       84.9412,       194.832,            0.,NA,NA,"",   1.42066E+06,   1.37589E+06,   1.37589E+06
C:/temp/Job-49.odb,Step-1,Increment      1: Step Time =    1.000,"P-49-1",           567,       74.8675,       194.958,            0.,NA,NA,"",   1.98076E+06,   1.93879E+06,   1.93879E+06
C:/temp/Job-49.odb,Step-1,Increment      1: Step Time =    1.000,"P-49-1",           568,       15.1744,       194.734,            0.,NA,NA,"",   3.22820E+06,   3.24338E+06,   3.24338E+06
C:/temp/Job-49.odb,Step-1,Increment      1: Step Time =    1.000,"P-49-1",           569,       5.05060,       194.920,            0.,NA,NA,"",   3.37480E+06,   3.51192E+06,   3.51192E+06
C:/temp/Job-49.odb,Step-1,Increment      1: Step Time =    1.000,"P-49-1",           570,       4.94265,       184.916,            0.,NA,NA,"",   2.41016E+06,   2.62683E+06,   2.62683E+06
C:/temp/Job-49.odb,Step-1,Increment      1: Step Time =    1.000,"P-49-1",           571,       4.69863,       174.968,            0.,NA,NA,"",   1.78646E+06,   1.97411E+06,   1.97411E+06
C:/temp/Job-49.odb,Step-1,Increment      1: Step Time =    1.000,"P-49-1",           572,       4.63685,       165.058,            0.,NA,NA,"",   1.26263E+06,   1.40289E+06,   1.40289E+06
C:/temp/Job-49.odb,Step-1,Increment      1: Step Time =    1.000,"P-49-1",           573,       4.73227,       155.268,            0.,NA,NA,"",   807.995E+03,   899.585E+03,   899.585E+03
C:/temp/Job-49.odb,Step-1,Increment      1: Step Time =    1.000,"P-49-1",           574,       5.22698,       114.946,            0.,NA,NA,"",   267.036E+03,  -300.432E+03,  -300.432E+03
C:/temp/Job-49.odb,Step-1,Increment      1: Step Time =    1.000,"P-49-1",           575,       5.26131,       104.884,            0.,NA,NA,"",   302.887E+03,  -344.233E+03,  -344.233E+03
C:/temp/Job-49.odb,Step-1,Increment      1: Step Time =    1.000,"P-49-1",           576,       4.77961,       94.8536,            0.,NA,NA,"",   302.818E+03,  -344.067E+03,  -344.067E+03
C:/temp/Job-49.odb,Step-1,Increment      1: Step Time =    1.000,"P-49-1",           577,       5.05544,       85.3236,            0.,NA,NA,"",   265.759E+03,  -298.260E+03,  -298.260E+03
C:/temp/Job-49.odb,Step-1,Increment      1: Step Time =    1.000,"P-49-1",           578,       4.78077,       75.0964,            0.,NA,NA,"",   171.616E+03,  -180.802E+03,  -180.802E+03
C:/temp/Job-49.odb,Step-1,Increment      1: Step Time =    1.000,"P-49-1",           579,       4.38772,       65.2068,            0.,NA,NA,"",   133.302E+03,   117.105E+03,   117.105E+03
C:/temp/Job-49.odb,Step-1,Increment      1: Step Time =    1.000,"P-49-1",           580,       55.1026,       195.498,            0.,NA,NA,"",   2.83303E+06,   2.81270E+06,   2.81270E+06
C:/temp/Job-49.odb,Step-1,Increment      1: Step Time =    1.000,"P-49-1",           581,       189.795,       5.16073,            0.,NA,NA,"",   981.273E+03,   978.169E+03,   978.169E+03
C:/temp/Job-49.odb,Step-1,Increment      1: Step Time =    1.000,"P-49-1",           582,       179.793,       5.09189,            0.,NA,NA,"",   939.952E+03,   936.804E+03,   936.804E+03
C:/temp/Job-49.odb,Step-1,Increment      1: Step Time =    1.000,"P-49-1",           583,       169.646,       5.04098,            0.,NA,NA,"",   878.989E+03,   871.586E+03,   871.586E+03
C:/temp/Job-49.odb,Step-1,Increment      1: Step Time =    1.000,"P-49-1",           584,       159.536,       4.82236,            0.,NA,NA,"",   763.988E+03,   751.367E+03,   751.367E+03
C:/temp/Job-49.odb,Step-1,Increment      1: Step Time =    1.000,"P-49-1",           585,       150.229,       4.65288,            0.,NA,NA,"",   597.042E+03,   578.800E+03,   578.800E+03
C:/temp/Job-49.odb,Step-1,Increment      1: Step Time =    1.000,"P-49-1",           586,       140.302,       5.19433,            0.,NA,NA,"",   440.442E+03,   413.145E+03,   413.145E+03
C:/temp/Job-49.odb,Step-1,Increment      1: Step Time =    1.000,"P-49-1",           587,       130.160,       4.95125,            0.,NA,NA,"",   351.516E+03,   154.077E+03,   154.077E+03
C:/temp/Job-49.odb,Step-1,Increment      1: Step Time =    1.000,"P-49-1",           588,       120.184,       4.54254,            0.,NA,NA,"",   337.732E+03,   3.73034E+03,   3.73034E+03
C:/temp/Job-49.odb,Step-1,Increment      1: Step Time =    1.000,"P-49-1",           589,       110.246,       4.39582,            0.,NA,NA,"",   373.118E+03,   81.9887E+03,   81.9887E+03
C:/temp/Job-49.odb,Step-1,Increment      1: Step Time =    1.000,"P-49-1",           590,       100.332,       4.60330,            0.,NA,NA,"",   556.383E+03,   460.207E+03,   460.207E+03
C:/temp/Job-49.odb,Step-1,Increment      1: Step Time =    1.000,"P-49-1",           591,       90.2267,       4.84322,            0.,NA,NA,"",   1.08165E+06,   1.04155E+06,   1.04155E+06
C:/temp/Job-49.odb,Step-1,Increment      1: Step Time =    1.000,"P-49-1",           592,       79.9712,       4.84693,            0.,NA,NA,"",   1.67089E+06,   1.62864E+06,   1.62864E+06
C:/temp/Job-49.odb,Step-1,Increment      1: Step Time =    1.000,"P-49-1",           593,       69.8734,       4.61939,            0.,NA,NA,"",   2.21622E+06,   2.18335E+06,   2.18335E+06
C:/temp/Job-49.odb,Step-1,Increment      1: Step Time =    1.000,"P-49-1",           594,       59.8312,       4.74126,            0.,NA,NA,"",   2.66249E+06,   2.63725E+06,   2.63725E+06
C:/temp/Job-49.odb,Step-1,Increment      1: Step Time =    1.000,"P-49-1",           595,       49.8462,       4.94428,            0.,NA,NA,"",   2.95259E+06,   2.93488E+06,   2.93488E+06
C:/temp/Job-49.odb,Step-1,Increment      1: Step Time =    1.000,"P-49-1",           596,       39.8875,       4.73630,            0.,NA,NA,"",   3.12551E+06,   3.11440E+06,   3.11440E+06
C:/temp/Job-49.odb,Step-1,Increment      1: Step Time =    1.000,"P-49-1",           597,       29.9966,       4.57367,            0.,NA,NA,"",   3.20230E+06,   3.19770E+06,   3.19770E+06
C:/temp/Job-49.odb,Step-1,Increment      1: Step Time =    1.000,"P-49-1",           598,       20.1383,       4.73766,            0.,NA,NA,"",   3.22749E+06,   3.22992E+06,   3.22992E+06
C:/temp/Job-49.odb,Step-1,Increment      1: Step Time =    1.000,"P-49-1",           599,       10.1796,       4.98913,            0.,NA,NA,"",   3.32163E+06,   3.34926E+06,   3.34926E+06
C:/temp/Job-49.odb,Step-1,Increment      1: Step Time =    1.000,"P-49-1",           600,       194.965,       189.906,            0.,NA,NA,"",   1.01009E+06,   998.363E+03,   998.363E+03
C:/temp/Job-49.odb,Step-1,Increment      1: Step Time =    1.000,"P-49-1",           601,       195.078,       179.949,            0.,NA,NA,"",   1.03659E+06,   1.01523E+06,   1.01523E+06
C:/temp/Job-49.odb,Step-1,Increment      1: Step Time =    1.000,"P-49-1",           602,       194.952,       169.734,            0.,NA,NA,"",   1.03436E+06,   1.04088E+06,   1.04088E+06
C:/temp/Job-49.odb,Step-1,Increment      1: Step Time =    1.000,"P-49-1",           603,       194.626,       159.416,            0.,NA,NA,"",   1.00891E+06,   1.08892E+06,   1.08892E+06
C:/temp/Job-49.odb,Step-1,Increment      1: Step Time =    1.000,"P-49-1",           604,       195.539,       149.562,            0.,NA,NA,"",   1.02008E+06,   1.15945E+06,   1.15945E+06
C:/temp/Job-49.odb,Step-1,Increment      1: Step Time =    1.000,"P-49-1",           605,       195.576,       139.802,            0.,NA,NA,"",   1.30024E+06,   1.48251E+06,   1.48251E+06
C:/temp/Job-49.odb,Step-1,Increment      1: Step Time =    1.000,"P-49-1",           606,       195.357,       129.954,            0.,NA,NA,"",   1.79994E+06,   2.06257E+06,   2.06257E+06
C:/temp/Job-49.odb,Step-1,Increment      1: Step Time =    1.000,"P-49-1",           607,       195.190,       120.121,            0.,NA,NA,"",   2.32173E+06,   2.63289E+06,   2.63289E+06
C:/temp/Job-49.odb,Step-1,Increment      1: Step Time =    1.000,"P-49-1",           608,       194.964,       110.225,            0.,NA,NA,"",   2.68782E+06,   3.02089E+06,   3.02089E+06
C:/temp/Job-49.odb,Step-1,Increment      1: Step Time =    1.000,"P-49-1",           609,       194.712,       100.218,            0.,NA,NA,"",   2.78619E+06,   3.12666E+06,   3.12666E+06
C:/temp/Job-49.odb,Step-1,Increment      1: Step Time =    1.000,"P-49-1",           610,       194.574,       90.0014,            0.,NA,NA,"",   2.62769E+06,   2.95668E+06,   2.95668E+06
C:/temp/Job-49.odb,Step-1,Increment      1: Step Time =    1.000,"P-49-1",           611,       194.590,       79.8975,            0.,NA,NA,"",   2.26789E+06,   2.56920E+06,   2.56920E+06
C:/temp/Job-49.odb,Step-1,Increment      1: Step Time =    1.000,"P-49-1",           612,       194.911,       69.8521,            0.,NA,NA,"",   1.77966E+06,   2.03546E+06,   2.03546E+06
C:/temp/Job-49.odb,Step-1,Increment      1: Step Time =    1.000,"P-49-1",           613,       195.223,       59.9797,            0.,NA,NA,"",   1.29851E+06,   1.47764E+06,   1.47764E+06
C:/temp/Job-49.odb,Step-1,Increment      1: Step Time =    1.000,"P-49-1",           614,       195.333,       50.0839,            0.,NA,NA,"",   1.02460E+06,   1.16140E+06,   1.16140E+06
C:/temp/Job-49.odb,Step-1,Increment      1: Step Time =    1.000,"P-49-1",           615,       195.371,       40.2991,            0.,NA,NA,"",   988.087E+03,   1.06928E+06,   1.06928E+06
C:/temp/Job-49.odb,Step-1,Increment      1: Step Time =    1.000,"P-49-1",           616,       195.213,       30.4637,            0.,NA,NA,"",   1.02937E+06,     1.036E+06,     1.036E+06
C:/temp/Job-49.odb,Step-1,Increment      1: Step Time =    1.000,"P-49-1",           617,       194.723,       20.4483,            0.,NA,NA,"",   1.03621E+06,   1.01701E+06,   1.01701E+06
C:/temp/Job-49.odb,Step-1,Increment      1: Step Time =    1.000,"P-49-1",           618,       194.742,       10.2288,            0.,NA,NA,"",   1.01047E+06,   999.101E+03,   999.101E+03
C:/temp/Job-49.odb,Step-1,Increment      1: Step Time =    1.000,"P-49-1",           619,       10.0993,       194.825,            0.,NA,NA,"",   3.31093E+06,   3.34190E+06,   3.34190E+06
C:/temp/Job-49.odb,Step-1,Increment      1: Step Time =    1.000,"P-49-1",           620,       20.2153,       194.696,            0.,NA,NA,"",   3.20603E+06,   3.20991E+06,   3.20991E+06
C:/temp/Job-49.odb,Step-1,Increment      1: Step Time =    1.000,"P-49-1",           621,       30.2519,       194.840,            0.,NA,NA,"",   3.17777E+06,   3.17135E+06,   3.17135E+06
C:/temp/Job-49.odb,Step-1,Increment      1: Step Time =    1.000,"P-49-1",           622,       40.3846,       194.778,            0.,NA,NA,"",   3.10192E+06,   3.08989E+06,   3.08989E+06
C:/temp/Job-49.odb,Step-1,Increment      1: Step Time =    1.000,"P-49-1",           623,       50.2709,       195.449,            0.,NA,NA,"",   2.96088E+06,   2.94486E+06,   2.94486E+06
C:/temp/Job-49.odb,Step-1,Increment      1: Step Time =    1.000,"P-49-1",           624,       59.9385,       195.393,            0.,NA,NA,"",   2.66522E+06,   2.64067E+06,   2.64067E+06
C:/temp/Job-49.odb,Step-1,Increment      1: Step Time =    1.000,"P-49-1",           625,       69.8294,       195.071,            0.,NA,NA,"",   2.23701E+06,   2.19983E+06,   2.19983E+06
C:/temp/Job-49.odb,Step-1,Increment      1: Step Time =    1.000,"P-49-1",           626,       79.9248,       194.890,            0.,NA,NA,"",   1.70519E+06,   1.66049E+06,   1.66049E+06
C:/temp/Job-49.odb,Step-1,Increment      1: Step Time =    1.000,"P-49-1",           627,       89.9362,       194.771,            0.,NA,NA,"",   1.14131E+06,   1.09862E+06,   1.09862E+06
C:/temp/Job-49.odb,Step-1,Increment      1: Step Time =    1.000,"P-49-1",           628,       99.9291,       194.682,            0.,NA,NA,"",   659.028E+03,   619.783E+03,   619.783E+03
C:/temp/Job-49.odb,Step-1,Increment      1: Step Time =    1.000,"P-49-1",           629,       110.004,       194.735,            0.,NA,NA,"",   445.630E+03,   200.325E+03,   200.325E+03
C:/temp/Job-49.odb,Step-1,Increment      1: Step Time =    1.000,"P-49-1",           630,       120.049,       194.923,            0.,NA,NA,"",   374.081E+03,   68.0386E+03,   68.0386E+03
C:/temp/Job-49.odb,Step-1,Increment      1: Step Time =    1.000,"P-49-1",           631,       130.058,       194.990,            0.,NA,NA,"",   361.100E+03,   165.039E+03,   165.039E+03
C:/temp/Job-49.odb,Step-1,Increment      1: Step Time =    1.000,"P-49-1",           632,       140.033,       195.096,            0.,NA,NA,"",   418.005E+03,   392.807E+03,   392.807E+03
C:/temp/Job-49.odb,Step-1,Increment      1: Step Time =    1.000,"P-49-1",           633,       149.974,       195.197,            0.,NA,NA,"",   605.708E+03,   586.897E+03,   586.897E+03
C:/temp/Job-49.odb,Step-1,Increment      1: Step Time =    1.000,"P-49-1",           634,       159.820,       195.227,            0.,NA,NA,"",   765.030E+03,   752.675E+03,   752.675E+03
C:/temp/Job-49.odb,Step-1,Increment      1: Step Time =    1.000,"P-49-1",           635,       169.656,       195.098,            0.,NA,NA,"",   874.471E+03,   867.369E+03,   867.369E+03
C:/temp/Job-49.odb,Step-1,Increment      1: Step Time =    1.000,"P-49-1",           636,       179.729,       194.770,            0.,NA,NA,"",   939.900E+03,   936.576E+03,   936.576E+03
C:/temp/Job-49.odb,Step-1,Increment      1: Step Time =    1.000,"P-49-1",           637,       189.895,       194.839,            0.,NA,NA,"",   981.615E+03,   978.375E+03,   978.375E+03
C:/temp/Job-49.odb,Step-1,Increment      1: Step Time =    1.000,"P-49-1",           638,       5.92014,       20.4561,            0.,NA,NA,"",   2.08973E+06,   2.28125E+06,   2.28125E+06
C:/temp/Job-49.odb,Step-1,Increment      1: Step Time =    1.000,"P-49-1",           639,       5.35137,       30.6384,            0.,NA,NA,"",   1.48668E+06,   1.64243E+06,   1.64243E+06
C:/temp/Job-49.odb,Step-1,Increment      1: Step Time =    1.000,"P-49-1",           640,       5.02362,       40.6553,            0.,NA,NA,"",   990.814E+03,   1.10138E+06,   1.10138E+06
C:/temp/Job-49.odb,Step-1,Increment      1: Step Time =    1.000,"P-49-1",           641,       4.77008,       50.5291,            0.,NA,NA,"",   570.655E+03,   634.491E+03,   634.491E+03
C:/temp/Job-49.odb,Step-1,Increment      1: Step Time =    1.000,"P-49-1",           642,       4.47007,       60.2740,            0.,NA,NA,"",   235.240E+03,   254.821E+03,   254.821E+03
C:/temp/Job-49.odb,Step-1,Increment      1: Step Time =    1.000,"P-49-1",           643,       4.50274,       70.1145,            0.,NA,NA,"",   121.360E+03,  -40.8313E+03,  -40.8313E+03
C:/temp/Job-49.odb,Step-1,Increment      1: Step Time =    1.000,"P-49-1",           644,       5.03363,       80.2061,            0.,NA,NA,"",   225.887E+03,  -249.300E+03,  -249.300E+03
C:/temp/Job-49.odb,Step-1,Increment      1: Step Time =    1.000,"P-49-1",           645,       4.53147,       90.0076,            0.,NA,NA,"",   289.887E+03,  -328.058E+03,  -328.058E+03
C:/temp/Job-49.odb,Step-1,Increment      1: Step Time =    1.000,"P-49-1",           646,       5.07411,       99.8102,            0.,NA,NA,"",   307.154E+03,  -349.274E+03,  -349.274E+03
C:/temp/Job-49.odb,Step-1,Increment      1: Step Time =    1.000,"P-49-1",           647,       5.29157,       109.928,            0.,NA,NA,"",   289.917E+03,  -328.580E+03,  -328.580E+03
C:/temp/Job-49.odb,Step-1,Increment      1: Step Time =    1.000,"P-49-1",           648,       5.32647,       120.121,            0.,NA,NA,"",   227.465E+03,  -251.173E+03,  -251.173E+03
C:/temp/Job-49.odb,Step-1,Increment      1: Step Time =    1.000,"P-49-1",           649,       5.37780,       130.446,            0.,NA,NA,"",   119.691E+03,  -32.4986E+03,  -32.4986E+03
C:/temp/Job-49.odb,Step-1,Increment      1: Step Time =    1.000,"P-49-1",           650,       4.89660,       140.566,            0.,NA,NA,"",   260.483E+03,   285.196E+03,   285.196E+03
C:/temp/Job-49.odb,Step-1,Increment      1: Step Time =    1.000,"P-49-1",           651,       4.77308,       150.373,            0.,NA,NA,"",   604.488E+03,   673.164E+03,   673.164E+03
C:/temp/Job-49.odb,Step-1,Increment      1: Step Time =    1.000,"P-49-1",           652,       4.66828,       160.165,            0.,NA,NA,"",   1.02873E+06,   1.14419E+06,   1.14419E+06
C:/temp/Job-49.odb,Step-1,Increment      1: Step Time =    1.000,"P-49-1",           653,       4.62201,       170.001,            0.,NA,NA,"",   1.51559E+06,   1.68016E+06,   1.68016E+06
C:/temp/Job-49.odb,Step-1,Increment      1: Step Time =    1.000,"P-49-1",           654,       4.80333,       179.958,            0.,NA,NA,"",   2.08644E+06,   2.29224E+06,   2.29224E+06
C:/temp/Job-49.odb,Step-1,Increment      1: Step Time =    1.000,"P-49-1",           655,       5.02286,       189.891,            0.,NA,NA,"",   2.82579E+06,   3.03148E+06,   3.03148E+06
C:/temp/Job-49.odb,Step-1,Increment      1: Step Time =    1.000,"P-49-1",           656,       156.130,       56.4985,            0.,NA,NA,"",   2.04781E+06,   1.78743E+06,   1.78743E+06
C:/temp/Job-49.odb,Step-1,Increment      1: Step Time =    1.000,"P-49-1",           657,       169.756,       90.4487,            0.,NA,NA,"",   1.45168E+06,  -1.38136E+06,  -1.38136E+06
C:/temp/Job-49.odb,Step-1,Increment      1: Step Time =    1.000,"P-49-1",           658,       54.3411,       46.8769,            0.,NA,NA,"",   1.10490E+06,   491.614E+03,   491.614E+03
C:/temp/Job-49.odb,Step-1,Increment      1: Step Time =    1.000,"P-49-1",           659,       146.628,       47.1004,            0.,NA,NA,"",   2.64741E+06,   2.62453E+06,   2.62453E+06
C:/temp/Job-49.odb,Step-1,Increment      1: Step Time =    1.000,"P-49-1",           660,       100.036,       169.635,            0.,NA,NA,"",   4.01489E+06,   4.16792E+06,   4.16792E+06
C:/temp/Job-49.odb,Step-1,Increment      1: Step Time =    1.000,"P-49-1",           661,       68.4193,       163.353,            0.,NA,NA,"",   2.25045E+06,   2.05252E+06,   2.05252E+06
C:/temp/Job-49.odb,Step-1,Increment      1: Step Time =    1.000,"P-49-1",           662,       56.4457,       158.798,            0.,NA,NA,"",   1.61379E+06,   1.30045E+06,   1.30045E+06
C:/temp/Job-49.odb,Step-1,Increment      1: Step Time =    1.000,"P-49-1",           663,       141.827,       155.900,            0.,NA,NA,"",   2.94749E+06,   2.99673E+06,   2.99673E+06
C:/temp/Job-49.odb,Step-1,Increment      1: Step Time =    1.000,"P-49-1",           664,       89.1030,       168.963,            0.,NA,NA,"",   3.57566E+06,   3.63608E+06,   3.63608E+06
C:/temp/Job-49.odb,Step-1,Increment      1: Step Time =    1.000,"P-49-1",           665,       111.678,       169.951,            0.,NA,NA,"",   3.87115E+06,   4.07483E+06,   4.07483E+06
C:/temp/Job-49.odb,Step-1,Increment      1: Step Time =    1.000,"P-49-1",           666,       163.935,       70.1378,            0.,NA,NA,"",   1.66422E+06,   52.2636E+03,   52.2636E+03
C:/temp/Job-49.odb,Step-1,Increment      1: Step Time =    1.000,"P-49-1",           667,       37.0183,       70.8096,            0.,NA,NA,"",   771.261E+03,  -800.709E+03,  -800.709E+03
C:/temp/Job-49.odb,Step-1,Increment      1: Step Time =    1.000,"P-49-1",           668,       171.427,       109.727,            0.,NA,NA,"",   1.21202E+06,  -1.07148E+06,  -1.07148E+06
C:/temp/Job-49.odb,Step-1,Increment      1: Step Time =    1.000,"P-49-1",           669,       50.3475,       57.3604,            0.,NA,NA,"",   967.627E+03,  -944.166E+03,  -944.166E+03
C:/temp/Job-49.odb,Step-1,Increment      1: Step Time =    1.000,"P-49-1",           670,       59.1270,       151.979,            0.,NA,NA,"",   858.704E+03,   111.381E+03,   111.381E+03
C:/temp/Job-49.odb,Step-1,Increment      1: Step Time =    1.000,"P-49-1",           671,       130.115,       9.88600,            0.,NA,NA,"",   758.794E+03,   771.316E+03,   771.316E+03
C:/temp/Job-49.odb,Step-1,Increment      1: Step Time =    1.000,"P-49-1",           672,       120.217,       9.00265,            0.,NA,NA,"",   607.019E+03,   644.259E+03,   644.259E+03
C:/temp/Job-49.odb,Step-1,Increment      1: Step Time =    1.000,"P-49-1",           673,       110.513,       8.72770,            0.,NA,NA,"",   733.448E+03,   763.923E+03,   763.923E+03
C:/temp/Job-49.odb,Step-1,Increment      1: Step Time =    1.000,"P-49-1",           674,       90.5588,       9.54601,            0.,NA,NA,"",   1.67054E+06,   1.60309E+06,   1.60309E+06
C:/temp/Job-49.odb,Step-1,Increment      1: Step Time =    1.000,"P-49-1",           675,       79.8434,       9.59295,            0.,NA,NA,"",   2.07346E+06,   1.97910E+06,   1.97910E+06
C:/temp/Job-49.odb,Step-1,Increment      1: Step Time =    1.000,"P-49-1",           676,       69.7305,       9.05633,            0.,NA,NA,"",   2.37542E+06,   2.29231E+06,   2.29231E+06
C:/temp/Job-49.odb,Step-1,Increment      1: Step Time =    1.000,"P-49-1",           677,       59.8444,       9.42209,            0.,NA,NA,"",   2.62888E+06,   2.55840E+06,   2.55840E+06
C:/temp/Job-49.odb,Step-1,Increment      1: Step Time =    1.000,"P-49-1",           678,       191.149,       139.647,            0.,NA,NA,"",   1.43947E+06,   1.59676E+06,   1.59676E+06
C:/temp/Job-49.odb,Step-1,Increment      1: Step Time =    1.000,"P-49-1",           679,       190.677,       129.961,            0.,NA,NA,"",   1.71070E+06,   1.90046E+06,   1.90046E+06
C:/temp/Job-49.odb,Step-1,Increment      1: Step Time =    1.000,"P-49-1",           680,       190.374,       120.294,            0.,NA,NA,"",   1.89618E+06,   2.11947E+06,   2.11947E+06
C:/temp/Job-49.odb,Step-1,Increment      1: Step Time =    1.000,"P-49-1",           681,       189.950,       110.581,            0.,NA,NA,"",   1.91584E+06,   2.16753E+06,   2.16753E+06
C:/temp/Job-49.odb,Step-1,Increment      1: Step Time =    1.000,"P-49-1",           682,       189.470,       100.492,            0.,NA,NA,"",   1.85509E+06,   2.11342E+06,   2.11342E+06
C:/temp/Job-49.odb,Step-1,Increment      1: Step Time =    1.000,"P-49-1",           683,       189.211,       90.0726,            0.,NA,NA,"",   1.83086E+06,   2.07147E+06,   2.07147E+06
C:/temp/Job-49.odb,Step-1,Increment      1: Step Time =    1.000,"P-49-1",           684,       189.074,       79.6780,            0.,NA,NA,"",   1.82077E+06,   2.01193E+06,   2.01193E+06
C:/temp/Job-49.odb,Step-1,Increment      1: Step Time =    1.000,"P-49-1",           685,       189.758,       69.4901,            0.,NA,NA,"",   1.69777E+06,   1.86325E+06,   1.86325E+06
C:/temp/Job-49.odb,Step-1,Increment      1: Step Time =    1.000,"P-49-1",           686,       190.446,       59.8129,            0.,NA,NA,"",   1.45810E+06,   1.59698E+06,   1.59698E+06
C:/temp/Job-49.odb,Step-1,Increment      1: Step Time =    1.000,"P-49-1",           687,       59.7390,       190.727,            0.,NA,NA,"",   2.63773E+06,   2.56999E+06,   2.56999E+06
C:/temp/Job-49.odb,Step-1,Increment      1: Step Time =    1.000,"P-49-1",           688,       79.7825,       189.840,            0.,NA,NA,"",   2.13573E+06,   2.03462E+06,   2.03462E+06
C:/temp/Job-49.odb,Step-1,Increment      1: Step Time =    1.000,"P-49-1",           689,       89.8011,       189.525,            0.,NA,NA,"",   1.78483E+06,   1.71301E+06,   1.71301E+06
C:/temp/Job-49.odb,Step-1,Increment      1: Step Time =    1.000,"P-49-1",           690,       99.8705,       189.372,            0.,NA,NA,"",   1.37432E+06,   1.36291E+06,   1.36291E+06
C:/temp/Job-49.odb,Step-1,Increment      1: Step Time =    1.000,"P-49-1",           691,       110.117,       189.514,            0.,NA,NA,"",   964.361E+03,   1.00747E+06,   1.00747E+06
C:/temp/Job-49.odb,Step-1,Increment      1: Step Time =    1.000,"P-49-1",           692,       130.117,       189.945,            0.,NA,NA,"",   779.302E+03,   788.977E+03,   788.977E+03
C:/temp/Job-49.odb,Step-1,Increment      1: Step Time =    1.000,"P-49-1",           693,       140.134,       190.215,            0.,NA,NA,"",   875.811E+03,   852.934E+03,   852.934E+03
C:/temp/Job-49.odb,Step-1,Increment      1: Step Time =    1.000,"P-49-1",           694,       8.86439,       70.0425,            0.,NA,NA,"",   106.646E+03,  -71.9036E+03,  -71.9036E+03
C:/temp/Job-49.odb,Step-1,Increment      1: Step Time =    1.000,"P-49-1",           695,       9.92194,       80.1523,            0.,NA,NA,"",   233.706E+03,  -258.758E+03,  -258.758E+03
C:/temp/Job-49.odb,Step-1,Increment      1: Step Time =    1.000,"P-49-1",           696,       8.36699,       90.2348,            0.,NA,NA,"",   289.258E+03,  -329.507E+03,  -329.507E+03
C:/temp/Job-49.odb,Step-1,Increment      1: Step Time =    1.000,"P-49-1",           697,       10.1284,       99.3885,            0.,NA,NA,"",   297.069E+03,  -340.866E+03,  -340.866E+03
C:/temp/Job-49.odb,Step-1,Increment      1: Step Time =    1.000,"P-49-1",           698,       10.6663,       109.961,            0.,NA,NA,"",   286.210E+03,  -327.511E+03,  -327.511E+03
C:/temp/Job-49.odb,Step-1,Increment      1: Step Time =    1.000,"P-49-1",           699,       10.1266,       119.938,            0.,NA,NA,"",   240.431E+03,  -266.724E+03,  -266.724E+03
C:/temp/Job-49.odb,Step-1,Increment      1: Step Time =    1.000,"P-49-1",           700,       10.4937,       131.209,            0.,NA,NA,"",   93.8449E+03,  -42.5309E+03,  -42.5309E+03
C:/temp/Job-49.odb,Step-1,Increment      1: Step Time =    1.000,"P-49-1",           701,       140.596,       10.4608,            0.,NA,NA,"",   928.068E+03,   905.552E+03,   905.552E+03
C:/temp/Job-49.odb,Step-1,Increment      1: Step Time =    1.000,"P-49-1",           702,       100.809,       9.17090,            0.,NA,NA,"",   1.16022E+06,   1.15002E+06,   1.15002E+06
C:/temp/Job-49.odb,Step-1,Increment      1: Step Time =    1.000,"P-49-1",           703,       69.5527,       190.151,            0.,NA,NA,"",   2.41897E+06,   2.32432E+06,   2.32432E+06
C:/temp/Job-49.odb,Step-1,Increment      1: Step Time =    1.000,"P-49-1",           704,       120.130,       189.970,            0.,NA,NA,"",   741.596E+03,   793.847E+03,   793.847E+03
C:/temp/Job-49.odb,Step-1,Increment      1: Step Time =    1.000,"P-49-1",           705,       8.92062,       60.7234,            0.,NA,NA,"",   173.525E+03,   196.004E+03,   196.004E+03
C:/temp/Job-49.odb,Step-1,Increment      1: Step Time =    1.000,"P-49-1",           706,       9.72971,       141.217,            0.,NA,NA,"",   241.085E+03,   272.181E+03,   272.181E+03
C:/temp/Job-49.odb,Step-1,Increment      1: Step Time =    1.000,"P-49-1",           707,       169.934,       100.492,            0.,NA,NA,"",   1.49521E+06,  -1.51903E+06,  -1.51903E+06
C:/temp/Job-49.odb,Step-1,Increment      1: Step Time =    1.000,"P-49-1",           708,       118.800,       33.0841,            0.,NA,NA,"",   4.08554E+06,   4.27918E+06,   4.27918E+06
C:/temp/Job-49.odb,Step-1,Increment      1: Step Time =    1.000,"P-49-1",           709,       78.7359,       32.7068,            0.,NA,NA,"",   2.98431E+06,   2.92048E+06,   2.92048E+06
C:/temp/Job-49.odb,Step-1,Increment      1: Step Time =    1.000,"P-49-1",           710,       158.982,       143.221,            0.,NA,NA,"",   2.09231E+06,   1.77384E+06,   1.77384E+06
C:/temp/Job-49.odb,Step-1,Increment      1: Step Time =    1.000,"P-49-1",           711,       45.8518,       142.572,            0.,NA,NA,"",   772.170E+03,  -726.831E+03,  -726.831E+03
C:/temp/Job-49.odb,Step-1,Increment      1: Step Time =    1.000,"P-49-1",           712,       154.538,       148.846,            0.,NA,NA,"",   2.28496E+06,   2.09871E+06,   2.09871E+06
C:/temp/Job-49.odb,Step-1,Increment      1: Step Time =    1.000,"P-49-1",           713,       48.9262,       146.359,            0.,NA,NA,"",   792.011E+03,  -652.657E+03,  -652.657E+03
C:/temp/Job-49.odb,Step-1,Increment      1: Step Time =    1.000,"P-49-1",           714,       165.349,       125.096,            0.,NA,NA,"",   1.62148E+06,  -1.15963E+06,  -1.15963E+06
C:/temp/Job-49.odb,Step-1,Increment      1: Step Time =    1.000,"P-49-1",           715,       30.5624,       90.3130,            0.,NA,NA,"",   595.367E+03,  -646.698E+03,  -646.698E+03
C:/temp/Job-49.odb,Step-1,Increment      1: Step Time =    1.000,"P-49-1",           716,       128.209,       165.304,            0.,NA,NA,"",   3.52434E+06,   3.69005E+06,   3.69005E+06
C:/temp/Job-49.odb,Step-1,Increment      1: Step Time =    1.000,"P-49-1",           717,       31.3280,       111.879,            0.,NA,NA,"",   625.373E+03,  -672.653E+03,  -672.653E+03
C:/temp/Job-49.odb,Step-1,Increment      1: Step Time =    1.000,"P-49-1",           718,       133.203,       161.666,            0.,NA,NA,"",   3.45869E+06,    3.5897E+06,    3.5897E+06
C:/temp/Job-49.odb,Step-1,Increment      1: Step Time =    1.000,"P-49-1",           719,       78.4669,       166.419,            0.,NA,NA,"",   2.91594E+06,   2.85981E+06,   2.85981E+06
C:/temp/Job-49.odb,Step-1,Increment      1: Step Time =    1.000,"P-49-1",           720,       33.4990,       126.097,            0.,NA,NA,"",   654.786E+03,  -689.583E+03,  -689.583E+03
C:/temp/Job-49.odb,Step-1,Increment      1: Step Time =    1.000,"P-49-1",           721,       162.921,       129.267,            0.,NA,NA,"",   1.56111E+06,  -453.473E+03,  -453.473E+03
C:/temp/Job-49.odb,Step-1,Increment      1: Step Time =    1.000,"P-49-1",           722,       73.5229,       34.2457,            0.,NA,NA,"",   2.64426E+06,   2.51600E+06,   2.51600E+06
C:/temp/Job-49.odb,Step-1,Increment      1: Step Time =    1.000,"P-49-1",           723,       123.597,       33.5363,            0.,NA,NA,"",   3.76743E+06,   3.95603E+06,   3.95603E+06
C:/temp/Job-49.odb,Step-1,Increment      1: Step Time =    1.000,"P-49-1",           724,       43.2808,       58.9501,            0.,NA,NA,"",   733.706E+03,  -692.503E+03,  -692.503E+03
C:/temp/Job-49.odb,Step-1,Increment      1: Step Time =    1.000,"P-49-1",           725,       122.170,       166.321,            0.,NA,NA,"",   3.90804E+06,    4.0985E+06,    4.0985E+06
C:/temp/Job-49.odb,Step-1,Increment      1: Step Time =    1.000,"P-49-1",           726,       36.7164,       130.154,            0.,NA,NA,"",   731.276E+03,  -760.543E+03,  -760.543E+03
C:/temp/Job-49.odb,Step-1,Increment      1: Step Time =    1.000,"P-49-1",           727,       73.5513,       164.677,            0.,NA,NA,"",   2.55432E+06,   2.43162E+06,   2.43162E+06
C:/temp/Job-49.odb,Step-1,Increment      1: Step Time =    1.000,"P-49-1",           728,       167.071,       79.5333,            0.,NA,NA,"",   1.56967E+06,  -1.26096E+06,  -1.26096E+06
C:/temp/Job-49.odb,Step-1,Increment      1: Step Time =    1.000,"P-49-1",           729,       30.6930,       79.5388,            0.,NA,NA,"",   589.157E+03,  -632.288E+03,  -632.288E+03
C:/temp/Job-49.odb,Step-1,Increment      1: Step Time =    1.000,"P-49-1",           730,       39.3113,       67.8383,            0.,NA,NA,"",   819.192E+03,  -844.129E+03,  -844.129E+03
C:/temp/Job-49.odb,Step-1,Increment      1: Step Time =    1.000,"P-49-1",           731,       163.807,       65.3903,            0.,NA,NA,"",   1.86618E+06,   1.31472E+06,   1.31472E+06
C:/temp/Job-49.odb,Step-1,Increment      1: Step Time =    1.000,"P-49-1",           732,       145.981,       153.207,            0.,NA,NA,"",   2.65329E+06,   2.64120E+06,   2.64120E+06
C:/temp/Job-49.odb,Step-1,Increment      1: Step Time =    1.000,"P-49-1",           733,       60.2910,       14.0049,            0.,NA,NA,"",   2.63928E+06,   2.51175E+06,   2.51175E+06
C:/temp/Job-49.odb,Step-1,Increment      1: Step Time =    1.000,"P-49-1",           734,       13.0844,       61.6026,            0.,NA,NA,"",   120.224E+03,   135.296E+03,   135.296E+03
C:/temp/Job-49.odb,Step-1,Increment      1: Step Time =    1.000,"P-49-1",           735,       185.732,       59.3650,            0.,NA,NA,"",   1.66214E+06,   1.67903E+06,   1.67903E+06
C:/temp/Job-49.odb,Step-1,Increment      1: Step Time =    1.000,"P-49-1",           736,       59.3043,       186.006,            0.,NA,NA,"",   2.64931E+06,   2.52588E+06,   2.52588E+06
C:/temp/Job-49.odb,Step-1,Increment      1: Step Time =    1.000,"P-49-1",           737,       140.791,       15.6807,            0.,NA,NA,"",   1.37475E+06,   1.36480E+06,   1.36480E+06
C:/temp/Job-49.odb,Step-1,Increment      1: Step Time =    1.000,"P-49-1",           738,       14.5050,       141.759,            0.,NA,NA,"",   241.280E+03,   265.791E+03,   265.791E+03
C:/temp/Job-49.odb,Step-1,Increment      1: Step Time =    1.000,"P-49-1",           739,       186.797,       139.588,            0.,NA,NA,"",   1.62867E+06,   1.68440E+06,   1.68440E+06
C:/temp/Job-49.odb,Step-1,Increment      1: Step Time =    1.000,"P-49-1",           740,       140.360,       185.443,            0.,NA,NA,"",   1.27917E+06,   1.26503E+06,   1.26503E+06
C:/temp/Job-49.odb,Step-1,Increment      1: Step Time =    1.000,"P-49-1",           741,       152.426,       53.6527,            0.,NA,NA,"",   2.18582E+06,   2.03615E+06,   2.03615E+06
C:/temp/Job-49.odb,Step-1,Increment      1: Step Time =    1.000,"P-49-1",           742,       174.826,       113.297,            0.,NA,NA,"",   1.13856E+06,  -15.9668E+03,  -15.9668E+03
C:/temp/Job-49.odb,Step-1,Increment      1: Step Time =    1.000,"P-49-1",           743,       26.9205,       112.224,            0.,NA,NA,"",   463.337E+03,  -519.664E+03,  -519.664E+03
C:/temp/Job-49.odb,Step-1,Increment      1: Step Time =    1.000,"P-49-1",           744,       29.8896,       122.476,            0.,NA,NA,"",   558.312E+03,  -599.074E+03,  -599.074E+03
C:/temp/Job-49.odb,Step-1,Increment      1: Step Time =    1.000,"P-49-1",           745,       172.112,       124.342,            0.,NA,NA,"",   1.71931E+06,   172.590E+03,   172.590E+03
C:/temp/Job-49.odb,Step-1,Increment      1: Step Time =    1.000,"P-49-1",           746,       46.1637,       54.3370,            0.,NA,NA,"",   773.314E+03,  -620.350E+03,  -620.350E+03
C:/temp/Job-49.odb,Step-1,Increment      1: Step Time =    1.000,"P-49-1",           747,       119.229,       29.0323,            0.,NA,NA,"",   3.26062E+06,   3.46421E+06,   3.46421E+06
C:/temp/Job-49.odb,Step-1,Increment      1: Step Time =    1.000,"P-49-1",           748,       162.551,       53.9874,            0.,NA,NA,"",   2.25816E+06,   1.91221E+06,   1.91221E+06
C:/temp/Job-49.odb,Step-1,Increment      1: Step Time =    1.000,"P-49-1",           749,       38.4715,       56.6080,            0.,NA,NA,"",   577.610E+03,  -252.314E+03,  -252.314E+03
C:/temp/Job-49.odb,Step-1,Increment      1: Step Time =    1.000,"P-49-1",           750,       174.656,       90.8745,            0.,NA,NA,"",   935.028E+03,  -167.711E+03,  -167.711E+03
C:/temp/Job-49.odb,Step-1,Increment      1: Step Time =    1.000,"P-49-1",           751,       26.0159,       89.9624,            0.,NA,NA,"",   444.579E+03,  -502.031E+03,  -502.031E+03
C:/temp/Job-49.odb,Step-1,Increment      1: Step Time =    1.000,"P-49-1",           752,       46.4635,       46.8527,            0.,NA,NA,"",   1.12052E+06,   540.688E+03,   540.688E+03
C:/temp/Job-49.odb,Step-1,Increment      1: Step Time =    1.000,"P-49-1",           753,       149.506,       50.3444,            0.,NA,NA,"",   2.42577E+06,   2.35168E+06,   2.35168E+06
C:/temp/Job-49.odb,Step-1,Increment      1: Step Time =    1.000,"P-49-1",           754,       129.764,       14.7727,            0.,NA,NA,"",   1.27167E+06,   1.31976E+06,   1.31976E+06
C:/temp/Job-49.odb,Step-1,Increment      1: Step Time =    1.000,"P-49-1",           755,       15.0932,       132.701,            0.,NA,NA,"",   87.5014E+03,  -46.6806E+03,  -46.6806E+03
C:/temp/Job-49.odb,Step-1,Increment      1: Step Time =    1.000,"P-49-1",           756,       12.9128,       69.5501,            0.,NA,NA,"",   102.123E+03,  -97.0314E+03,  -97.0314E+03
C:/temp/Job-49.odb,Step-1,Increment      1: Step Time =    1.000,"P-49-1",           757,       69.4934,       13.2298,            0.,NA,NA,"",   2.54323E+06,   2.40870E+06,   2.40870E+06
C:/temp/Job-49.odb,Step-1,Increment      1: Step Time =    1.000,"P-49-1",           758,       69.2027,       185.259,            0.,NA,NA,"",   2.59884E+06,   2.44442E+06,   2.44442E+06
C:/temp/Job-49.odb,Step-1,Increment      1: Step Time =    1.000,"P-49-1",           759,       186.005,       130.063,            0.,NA,NA,"",   1.74902E+06,   1.80411E+06,   1.80411E+06
C:/temp/Job-49.odb,Step-1,Increment      1: Step Time =    1.000,"P-49-1",           760,       184.535,       68.8565,            0.,NA,NA,"",   1.76852E+06,   1.77225E+06,   1.77225E+06
C:/temp/Job-49.odb,Step-1,Increment      1: Step Time =    1.000,"P-49-1",           761,       130.123,       184.749,            0.,NA,NA,"",   1.30633E+06,   1.35513E+06,   1.35513E+06
C:/temp/Job-49.odb,Step-1,Increment      1: Step Time =    1.000,"P-49-1",           762,       122.678,       170.653,            0.,NA,NA,"",   3.12972E+06,   3.32245E+06,   3.32245E+06
C:/temp/Job-49.odb,Step-1,Increment      1: Step Time =    1.000,"P-49-1",           763,       132.584,       168.347,            0.,NA,NA,"",   2.82317E+06,   2.95217E+06,   2.95217E+06
C:/temp/Job-49.odb,Step-1,Increment      1: Step Time =    1.000,"P-49-1",           764,       68.0224,       167.817,            0.,NA,NA,"",   2.56970E+06,   2.33056E+06,   2.33056E+06
C:/temp/Job-49.odb,Step-1,Increment      1: Step Time =    1.000,"P-49-1",           765,       31.8330,       67.2542,            0.,NA,NA,"",   455.245E+03,  -468.275E+03,  -468.275E+03
C:/temp/Job-49.odb,Step-1,Increment      1: Step Time =    1.000,"P-49-1",           766,       168.828,       66.1680,            0.,NA,NA,"",   2.03685E+06,   1.47556E+06,   1.47556E+06
C:/temp/Job-49.odb,Step-1,Increment      1: Step Time =    1.000,"P-49-1",           767,       57.5141,       163.513,            0.,NA,NA,"",   2.01820E+06,   1.71700E+06,   1.71700E+06
C:/temp/Job-49.odb,Step-1,Increment      1: Step Time =    1.000,"P-49-1",           768,       140.193,       162.463,            0.,NA,NA,"",   2.84143E+06,   2.90788E+06,   2.90788E+06
C:/temp/Job-49.odb,Step-1,Increment      1: Step Time =    1.000,"P-49-1",           769,       110.502,       174.705,            0.,NA,NA,"",   3.01515E+06,   3.20355E+06,   3.20355E+06
C:/temp/Job-49.odb,Step-1,Increment      1: Step Time =    1.000,"P-49-1",           770,       94.4564,       174.024,            0.,NA,NA,"",   3.23276E+06,   3.31259E+06,   3.31259E+06
C:/temp/Job-49.odb,Step-1,Increment      1: Step Time =    1.000,"P-49-1",           771,       120.021,       13.3093,            0.,NA,NA,"",   1.13127E+06,   1.20441E+06,   1.20441E+06
C:/temp/Job-49.odb,Step-1,Increment      1: Step Time =    1.000,"P-49-1",           772,       14.1007,       79.3215,            0.,NA,NA,"",   242.986E+03,  -270.345E+03,  -270.345E+03
C:/temp/Job-49.odb,Step-1,Increment      1: Step Time =    1.000,"P-49-1",           773,       79.4921,       14.1245,            0.,NA,NA,"",   2.42592E+06,   2.29067E+06,   2.29067E+06
C:/temp/Job-49.odb,Step-1,Increment      1: Step Time =    1.000,"P-49-1",           774,       16.0978,       122.028,            0.,NA,NA,"",   255.463E+03,  -284.483E+03,  -284.483E+03
C:/temp/Job-49.odb,Step-1,Increment      1: Step Time =    1.000,"P-49-1",           775,       79.5487,       184.911,            0.,NA,NA,"",   2.50301E+06,   2.36336E+06,   2.36336E+06
C:/temp/Job-49.odb,Step-1,Increment      1: Step Time =    1.000,"P-49-1",           776,       185.666,       120.484,            0.,NA,NA,"",   1.66782E+06,   1.75014E+06,   1.75014E+06
C:/temp/Job-49.odb,Step-1,Increment      1: Step Time =    1.000,"P-49-1",           777,       183.453,       79.1997,            0.,NA,NA,"",   1.62314E+06,   1.62405E+06,   1.62405E+06
C:/temp/Job-49.odb,Step-1,Increment      1: Step Time =    1.000,"P-49-1",           778,       120.224,       185.301,            0.,NA,NA,"",   1.34113E+06,   1.43387E+06,   1.43387E+06
C:/temp/Job-49.odb,Step-1,Increment      1: Step Time =    1.000,"P-49-1",           779,       51.8811,       150.197,            0.,NA,NA,"",   913.725E+03,  -241.435E+03,  -241.435E+03
C:/temp/Job-49.odb,Step-1,Increment      1: Step Time =    1.000,"P-49-1",           780,       39.7282,       134.408,            0.,NA,NA,"",   772.128E+03,  -792.497E+03,  -792.497E+03
C:/temp/Job-49.odb,Step-1,Increment      1: Step Time =    1.000,"P-49-1",           781,       173.592,       80.7804,            0.,NA,NA,"",   1.47482E+06,   485.326E+03,   485.326E+03
C:/temp/Job-49.odb,Step-1,Increment      1: Step Time =    1.000,"P-49-1",           782,       26.0053,       80.1562,            0.,NA,NA,"",   435.595E+03,  -480.040E+03,  -480.040E+03
C:/temp/Job-49.odb,Step-1,Increment      1: Step Time =    1.000,"P-49-1",           783,       150.210,       150.726,            0.,NA,NA,"",   2.41424E+06,   2.32188E+06,   2.32188E+06
C:/temp/Job-49.odb,Step-1,Increment      1: Step Time =    1.000,"P-49-1",           784,       110.866,       12.9443,            0.,NA,NA,"",   1.28934E+06,   1.35930E+06,   1.35930E+06
C:/temp/Job-49.odb,Step-1,Increment      1: Step Time =    1.000,"P-49-1",           785,       90.9678,       13.8377,            0.,NA,NA,"",   2.09590E+06,   2.03283E+06,   2.03283E+06
C:/temp/Job-49.odb,Step-1,Increment      1: Step Time =    1.000,"P-49-1",           786,       16.6803,       110.409,            0.,NA,NA,"",   297.174E+03,  -341.287E+03,  -341.287E+03
C:/temp/Job-49.odb,Step-1,Increment      1: Step Time =    1.000,"P-49-1",           787,       185.166,       111.151,            0.,NA,NA,"",   1.40196E+06,   1.54669E+06,   1.54669E+06
C:/temp/Job-49.odb,Step-1,Increment      1: Step Time =    1.000,"P-49-1",           788,       184.117,       90.4485,            0.,NA,NA,"",   1.25323E+06,   1.38709E+06,   1.38709E+06
C:/temp/Job-49.odb,Step-1,Increment      1: Step Time =    1.000,"P-49-1",           789,       110.384,       184.328,            0.,NA,NA,"",   1.63724E+06,   1.73427E+06,   1.73427E+06
C:/temp/Job-49.odb,Step-1,Increment      1: Step Time =    1.000,"P-49-1",           790,       152.213,       155.348,            0.,NA,NA,"",   2.45722E+06,   2.33243E+06,   2.33243E+06
C:/temp/Job-49.odb,Step-1,Increment      1: Step Time =    1.000,"P-49-1",           791,       39.2985,       141.158,            0.,NA,NA,"",   578.211E+03,  -518.572E+03,  -518.572E+03
C:/temp/Job-49.odb,Step-1,Increment      1: Step Time =    1.000,"P-49-1",           792,       14.7711,       98.8473,            0.,NA,NA,"",   288.509E+03,  -324.252E+03,  -324.252E+03
C:/temp/Job-49.odb,Step-1,Increment      1: Step Time =    1.000,"P-49-1",           793,       101.494,       13.5856,            0.,NA,NA,"",   1.70744E+06,   1.73904E+06,   1.73904E+06
C:/temp/Job-49.odb,Step-1,Increment      1: Step Time =    1.000,"P-49-1",           794,       184.358,       100.648,            0.,NA,NA,"",   1.09638E+06,   1.26050E+06,   1.26050E+06
C:/temp/Job-49.odb,Step-1,Increment      1: Step Time =    1.000,"P-49-1",           795,       99.8370,       184.130,            0.,NA,NA,"",   1.99774E+06,   2.03041E+06,   2.03041E+06
C:/temp/Job-49.odb,Step-1,Increment      1: Step Time =    1.000,"P-49-1",           796,       156.225,       153.643,            0.,NA,NA,"",   2.37020E+06,   2.18063E+06,   2.18063E+06
C:/temp/Job-49.odb,Step-1,Increment      1: Step Time =    1.000,"P-49-1",           797,       12.5025,       65.7787,            0.,NA,NA,"",   58.0450E+03,   9.03473E+03,   9.03473E+03
C:/temp/Job-49.odb,Step-1,Increment      1: Step Time =    1.000,"P-49-1",           798,       64.7811,       13.0245,            0.,NA,NA,"",   2.59264E+06,   2.46427E+06,   2.46427E+06
C:/temp/Job-49.odb,Step-1,Increment      1: Step Time =    1.000,"P-49-1",           799,       184.955,       63.9597,            0.,NA,NA,"",   1.74060E+06,   1.74644E+06,   1.74644E+06
C:/temp/Job-49.odb,Step-1,Increment      1: Step Time =    1.000,"P-49-1",           800,       64.0942,       185.494,            0.,NA,NA,"",   2.62577E+06,   2.48510E+06,   2.48510E+06
C:/temp/Job-49.odb,Step-1,Increment      1: Step Time =    1.000,"P-49-1",           801,       14.3685,       137.126,            0.,NA,NA,"",   96.7071E+03,   103.234E+03,   103.234E+03
C:/temp/Job-49.odb,Step-1,Increment      1: Step Time =    1.000,"P-49-1",           802,       135.089,       15.4940,            0.,NA,NA,"",   1.34770E+06,   1.36895E+06,   1.36895E+06
C:/temp/Job-49.odb,Step-1,Increment      1: Step Time =    1.000,"P-49-1",           803,       186.541,       134.878,            0.,NA,NA,"",   1.70858E+06,   1.76398E+06,   1.76398E+06
C:/temp/Job-49.odb,Step-1,Increment      1: Step Time =    1.000,"P-49-1",           804,       135.291,       185.099,            0.,NA,NA,"",   1.29647E+06,   1.31544E+06,   1.31544E+06
C:/temp/Job-49.odb,Step-1,Increment      1: Step Time =    1.000,"P-49-1",           805,       33.2559,       132.961,            0.,NA,NA,"",   494.823E+03,  -509.911E+03,  -509.911E+03
C:/temp/Job-49.odb,Step-1,Increment      1: Step Time =    1.000,"P-49-1",           806,       174.543,       107.837,            0.,NA,NA,"",   852.840E+03,  -357.609E+03,  -357.609E+03
C:/temp/Job-49.odb,Step-1,Increment      1: Step Time =    1.000,"P-49-1",           807,       26.5512,       117.564,            0.,NA,NA,"",   462.952E+03,  -511.380E+03,  -511.380E+03
C:/temp/Job-49.odb,Step-1,Increment      1: Step Time =    1.000,"P-49-1",           808,       26.6638,       125.260,            0.,NA,NA,"",   418.148E+03,  -450.795E+03,  -450.795E+03
C:/temp/Job-49.odb,Step-1,Increment      1: Step Time =    1.000,"P-49-1",           809,       168.160,       120.915,            0.,NA,NA,"",   1.60840E+06,  -1.20131E+06,  -1.20131E+06
C:/temp/Job-49.odb,Step-1,Increment      1: Step Time =    1.000,"P-49-1",           810,       175.540,       127.971,            0.,NA,NA,"",   1.87716E+06,   1.47528E+06,   1.47528E+06
C:/temp/Job-49.odb,Step-1,Increment      1: Step Time =    1.000,"P-49-1",           811,       175.277,       86.4283,            0.,NA,NA,"",   1.15099E+06,   415.365E+03,   415.365E+03
C:/temp/Job-49.odb,Step-1,Increment      1: Step Time =    1.000,"P-49-1",           812,       25.6000,       94.6955,            0.,NA,NA,"",   417.418E+03,  -475.792E+03,  -475.792E+03
C:/temp/Job-49.odb,Step-1,Increment      1: Step Time =    1.000,"P-49-1",           813,       50.9728,       43.5789,            0.,NA,NA,"",   1.39716E+06,   1.05940E+06,   1.05940E+06
C:/temp/Job-49.odb,Step-1,Increment      1: Step Time =    1.000,"P-49-1",           814,       149.881,       45.0357,            0.,NA,NA,"",   2.53444E+06,   2.45072E+06,   2.45072E+06
C:/temp/Job-49.odb,Step-1,Increment      1: Step Time =    1.000,"P-49-1",           815,       16.9079,       128.619,            0.,NA,NA,"",   174.555E+03,  -184.798E+03,  -184.798E+03
C:/temp/Job-49.odb,Step-1,Increment      1: Step Time =    1.000,"P-49-1",           816,       124.760,       14.0232,            0.,NA,NA,"",   1.18316E+06,   1.24893E+06,   1.24893E+06
C:/temp/Job-49.odb,Step-1,Increment      1: Step Time =    1.000,"P-49-1",           817,       14.4396,       74.4998,            0.,NA,NA,"",   193.737E+03,  -208.953E+03,  -208.953E+03
C:/temp/Job-49.odb,Step-1,Increment      1: Step Time =    1.000,"P-49-1",           818,       74.3351,       13.8923,            0.,NA,NA,"",   2.49857E+06,   2.35505E+06,   2.35505E+06
C:/temp/Job-49.odb,Step-1,Increment      1: Step Time =    1.000,"P-49-1",           819,       185.562,       125.177,            0.,NA,NA,"",   1.73567E+06,   1.80016E+06,   1.80016E+06
C:/temp/Job-49.odb,Step-1,Increment      1: Step Time =    1.000,"P-49-1",           820,       184.104,       73.9328,            0.,NA,NA,"",   1.73540E+06,   1.73939E+06,   1.73939E+06
C:/temp/Job-49.odb,Step-1,Increment      1: Step Time =    1.000,"P-49-1",           821,       74.3917,       185.100,            0.,NA,NA,"",   2.56129E+06,   2.40469E+06,   2.40469E+06
C:/temp/Job-49.odb,Step-1,Increment      1: Step Time =    1.000,"P-49-1",           822,       125.084,       185.057,            0.,NA,NA,"",   1.30041E+06,   1.36986E+06,   1.36986E+06
C:/temp/Job-49.odb,Step-1,Increment      1: Step Time =    1.000,"P-49-1",           823,       130.136,       171.948,            0.,NA,NA,"",   2.62277E+06,   2.75763E+06,   2.75763E+06
C:/temp/Job-49.odb,Step-1,Increment      1: Step Time =    1.000,"P-49-1",           824,       71.6360,       171.887,            0.,NA,NA,"",   2.81287E+06,   2.59377E+06,   2.59377E+06
C:/temp/Job-49.odb,Step-1,Increment      1: Step Time =    1.000,"P-49-1",           825,       63.2898,       167.671,            0.,NA,NA,"",   2.44074E+06,   2.16561E+06,   2.16561E+06
C:/temp/Job-49.odb,Step-1,Increment      1: Step Time =    1.000,"P-49-1",           826,       144.177,       159.844,            0.,NA,NA,"",   2.70951E+06,   2.72137E+06,   2.72137E+06
C:/temp/Job-49.odb,Step-1,Increment      1: Step Time =    1.000,"P-49-1",           827,       114.702,       174.029,            0.,NA,NA,"",   3.00573E+06,   3.20781E+06,   3.20781E+06
C:/temp/Job-49.odb,Step-1,Increment      1: Step Time =    1.000,"P-49-1",           828,       88.8067,       173.813,            0.,NA,NA,"",   3.15872E+06,   3.17006E+06,   3.17006E+06
C:/temp/Job-49.odb,Step-1,Increment      1: Step Time =    1.000,"P-49-1",           829,       99.9099,       174.233,            0.,NA,NA,"",   3.23517E+06,   3.36788E+06,   3.36788E+06
C:/temp/Job-49.odb,Step-1,Increment      1: Step Time =    1.000,"P-49-1",           830,       85.3555,       14.9600,            0.,NA,NA,"",   2.36036E+06,   2.25717E+06,   2.25717E+06
C:/temp/Job-49.odb,Step-1,Increment      1: Step Time =    1.000,"P-49-1",           831,       14.8148,       115.629,            0.,NA,NA,"",   278.557E+03,  -317.516E+03,  -317.516E+03
C:/temp/Job-49.odb,Step-1,Increment      1: Step Time =    1.000,"P-49-1",           832,       115.391,       12.8057,            0.,NA,NA,"",   1.15462E+06,   1.23060E+06,   1.23060E+06
C:/temp/Job-49.odb,Step-1,Increment      1: Step Time =    1.000,"P-49-1",           833,       16.3821,       84.2638,            0.,NA,NA,"",   289.260E+03,  -330.120E+03,  -330.120E+03
C:/temp/Job-49.odb,Step-1,Increment      1: Step Time =    1.000,"P-49-1",           834,       182.693,       84.8026,            0.,NA,NA,"",   1.37995E+06,   1.39289E+06,   1.39289E+06
C:/temp/Job-49.odb,Step-1,Increment      1: Step Time =    1.000,"P-49-1",           835,       115.480,       184.645,            0.,NA,NA,"",   1.46650E+06,   1.57178E+06,   1.57178E+06
C:/temp/Job-49.odb,Step-1,Increment      1: Step Time =    1.000,"P-49-1",           836,       84.5346,       184.558,            0.,NA,NA,"",   2.42169E+06,   2.31306E+06,   2.31306E+06
C:/temp/Job-49.odb,Step-1,Increment      1: Step Time =    1.000,"P-49-1",           837,       185.199,       115.850,            0.,NA,NA,"",   1.55588E+06,   1.66806E+06,   1.66806E+06
C:/temp/Job-49.odb,Step-1,Increment      1: Step Time =    1.000,"P-49-1",           838,       54.4685,       154.427,            0.,NA,NA,"",   1.21337E+06,   607.919E+03,   607.919E+03
C:/temp/Job-49.odb,Step-1,Increment      1: Step Time =    1.000,"P-49-1",           839,       26.2325,       85.0300,            0.,NA,NA,"",   454.946E+03,  -508.169E+03,  -508.169E+03
C:/temp/Job-49.odb,Step-1,Increment      1: Step Time =    1.000,"P-49-1",           840,       96.1251,       14.6238,            0.,NA,NA,"",   2.00022E+06,   1.98921E+06,   1.98921E+06
C:/temp/Job-49.odb,Step-1,Increment      1: Step Time =    1.000,"P-49-1",           841,       15.6847,       104.272,            0.,NA,NA,"",   289.247E+03,  -325.969E+03,  -325.969E+03
C:/temp/Job-49.odb,Step-1,Increment      1: Step Time =    1.000,"P-49-1",           842,       184.418,       95.5133,            0.,NA,NA,"",   1.15413E+06,   1.31875E+06,   1.31875E+06
C:/temp/Job-49.odb,Step-1,Increment      1: Step Time =    1.000,"P-49-1",           843,       105.084,       184.217,            0.,NA,NA,"",   1.81861E+06,   1.89038E+06,   1.89038E+06
C:/temp/Job-49.odb,Step-1,Increment      1: Step Time =    1.000,"P-49-1",           844,       32.8582,       120.419,            0.,NA,NA,"",   681.176E+03,  -722.721E+03,  -722.721E+03
C:/temp/Job-49.odb,Step-1,Increment      1: Step Time =    1.000,"P-49-1",           845,       154.073,       159.778,            0.,NA,NA,"",   2.38015E+06,   2.25059E+06,   2.25059E+06
C:/temp/Job-49.odb,Step-1,Increment      1: Step Time =    1.000,"P-49-1",           846,       105.324,       174.427,            0.,NA,NA,"",   3.14918E+06,   3.31422E+06,   3.31422E+06
C:/temp/Job-49.odb,Step-1,Increment      1: Step Time =    1.000,"P-49-1",           847,       136.182,       165.179,            0.,NA,NA,"",   2.90460E+06,   3.01003E+06,   3.01003E+06
C:/temp/Job-49.odb,Step-1,Increment      1: Step Time =    1.000,"P-49-1",           848,       14.7115,       92.6400,            0.,NA,NA,"",   291.293E+03,  -333.168E+03,  -333.168E+03
C:/temp/Job-49.odb,Step-1,Increment      1: Step Time =    1.000,"P-49-1",           849,       106.289,       13.5066,            0.,NA,NA,"",   1.48185E+06,   1.53905E+06,   1.53905E+06
C:/temp/Job-49.odb,Step-1,Increment      1: Step Time =    1.000,"P-49-1",           850,       183.914,       106.354,            0.,NA,NA,"",   1.12318E+06,   1.26432E+06,   1.26432E+06
C:/temp/Job-49.odb,Step-1,Increment      1: Step Time =    1.000,"P-49-1",           851,       94.6661,       184.152,            0.,NA,NA,"",   2.16964E+06,   2.15385E+06,   2.15385E+06
C:/temp/Job-49.odb,Step-1,Increment      1: Step Time =    1.000,"P-49-1",           852,       36.2747,       137.036,            0.,NA,NA,"",   526.630E+03,  -517.966E+03,  -517.966E+03
C:/temp/Job-49.odb,Step-1,Increment      1: Step Time =    1.000,"P-49-1",           853,       173.851,       67.8578,            0.,NA,NA,"",   2.00511E+06,   1.56291E+06,   1.56291E+06
C:/temp/Job-49.odb,Step-1,Increment      1: Step Time =    1.000,"P-49-1",           854,       27.5491,       68.6666,            0.,NA,NA,"",   342.589E+03,  -354.621E+03,  -354.621E+03
C:/temp/Job-49.odb,Step-1,Increment      1: Step Time =    1.000,"P-49-1",           855,       39.1050,       147.745,            0.,NA,NA,"",   716.050E+03,   273.446E+03,   273.446E+03
C:/temp/Job-49.odb,Step-1,Increment      1: Step Time =    1.000,"P-49-1",           856,       174.601,       95.5615,            0.,NA,NA,"",   735.716E+03,  -316.913E+03,  -316.913E+03
C:/temp/Job-49.odb,Step-1,Increment      1: Step Time =    1.000,"P-49-1",           857,       45.3394,       148.586,            0.,NA,NA,"",   839.420E+03,  -9.02145E+03,  -9.02145E+03
C:/temp/Job-49.odb,Step-1,Increment      1: Step Time =    1.000,"P-49-1",           858,       115.949,       24.4050,            0.,NA,NA,"",   2.69721E+06,   2.88765E+06,   2.88765E+06
C:/temp/Job-49.odb,Step-1,Increment      1: Step Time =    1.000,"P-49-1",           859,       166.466,       131.407,            0.,NA,NA,"",   1.90528E+06,   732.915E+03,   732.915E+03
C:/temp/Job-49.odb,Step-1,Increment      1: Step Time =    1.000,"P-49-1",           860,       165.119,       74.9040,            0.,NA,NA,"",   1.58352E+06,  -1.13417E+06,  -1.13417E+06
C:/temp/Job-49.odb,Step-1,Increment      1: Step Time =    1.000,"P-49-1",           861,       174.555,       104.489,            0.,NA,NA,"",   709.289E+03,  -270.778E+03,  -270.778E+03
C:/temp/Job-49.odb,Step-1,Increment      1: Step Time =    1.000,"P-49-1",           862,       33.4390,       72.7114,            0.,NA,NA,"",   636.994E+03,  -670.976E+03,  -670.976E+03
C:/temp/Job-49.odb,Step-1,Increment      1: Step Time =    1.000,"P-49-1",           863,       118.877,       171.794,            0.,NA,NA,"",   3.13552E+06,   3.33318E+06,   3.33318E+06
C:/temp/Job-49.odb,Step-1,Increment      1: Step Time =    1.000,"P-49-1",           864,       142.857,       166.421,            0.,NA,NA,"",   2.51979E+06,   2.54270E+06,   2.54270E+06
C:/temp/Job-49.odb,Step-1,Increment      1: Step Time =    1.000,"P-49-1",           865,       150.259,       161.526,            0.,NA,NA,"",   2.43987E+06,   2.36079E+06,   2.36079E+06
C:/temp/Job-49.odb,Step-1,Increment      1: Step Time =    1.000,"P-49-1",           866,       127.235,       174.389,            0.,NA,NA,"",   2.47973E+06,   2.62536E+06,   2.62536E+06
C:/temp/Job-49.odb,Step-1,Increment      1: Step Time =    1.000,"P-49-1",           867,       17.5470,       88.9874,            0.,NA,NA,"",   300.419E+03,  -345.618E+03,  -345.618E+03
C:/temp/Job-49.odb,Step-1,Increment      1: Step Time =    1.000,"P-49-1",           868,       111.606,       16.7647,            0.,NA,NA,"",   1.72213E+06,   1.82871E+06,   1.82871E+06
C:/temp/Job-49.odb,Step-1,Increment      1: Step Time =    1.000,"P-49-1",           869,       181.217,       110.867,            0.,NA,NA,"",   1.06670E+06,   1.08131E+06,   1.08131E+06
C:/temp/Job-49.odb,Step-1,Increment      1: Step Time =    1.000,"P-49-1",           870,       89.5419,       184.281,            0.,NA,NA,"",   2.31471E+06,   2.24727E+06,   2.24727E+06
C:/temp/Job-49.odb,Step-1,Increment      1: Step Time =    1.000,"P-49-1",           871,       153.773,       41.2195,            0.,NA,NA,"",   2.38777E+06,   2.25189E+06,   2.25189E+06
C:/temp/Job-49.odb,Step-1,Increment      1: Step Time =    1.000,"P-49-1",           872,       47.9337,       40.1301,            0.,NA,NA,"",   1.61510E+06,   1.31675E+06,   1.31675E+06
C:/temp/Job-49.odb,Step-1,Increment      1: Step Time =    1.000,"P-49-1",           873,       18.7538,       98.7614,            0.,NA,NA,"",   297.269E+03,  -326.951E+03,  -326.951E+03
C:/temp/Job-49.odb,Step-1,Increment      1: Step Time =    1.000,"P-49-1",           874,       179.471,       100.362,            0.,NA,NA,"",   523.451E+03,   565.534E+03,   565.534E+03
C:/temp/Job-49.odb,Step-1,Increment      1: Step Time =    1.000,"P-49-1",           875,       177.499,       109.336,            0.,NA,NA,"",   852.907E+03,   377.388E+03,   377.388E+03
C:/temp/Job-49.odb,Step-1,Increment      1: Step Time =    1.000,"P-49-1",           876,       45.2625,       156.521,            0.,NA,NA,"",   1.31564E+06,   1.01838E+06,   1.01838E+06
C:/temp/Job-49.odb,Step-1,Increment      1: Step Time =    1.000,"P-49-1",           877,       41.6959,       151.290,            0.,NA,NA,"",   964.755E+03,   681.640E+03,   681.640E+03
C:/temp/Job-49.odb,Step-1,Increment      1: Step Time =    1.000,"P-49-1",           878,       29.9296,       135.638,            0.,NA,NA,"",   334.921E+03,  -321.697E+03,  -321.697E+03
C:/temp/Job-49.odb,Step-1,Increment      1: Step Time =    1.000,"P-49-1",           879,       18.9469,       61.1252,            0.,NA,NA,"",   162.171E+03,   104.039E+03,   104.039E+03
C:/temp/Job-49.odb,Step-1,Increment      1: Step Time =    1.000,"P-49-1",           880,       61.9927,       18.6046,            0.,NA,NA,"",   2.67520E+06,   2.48874E+06,   2.48874E+06
C:/temp/Job-49.odb,Step-1,Increment      1: Step Time =    1.000,"P-49-1",           881,       58.6306,       181.575,            0.,NA,NA,"",   2.65120E+06,   2.48034E+06,   2.48034E+06
C:/temp/Job-49.odb,Step-1,Increment      1: Step Time =    1.000,"P-49-1",           882,       181.185,       58.1429,            0.,NA,NA,"",   1.83857E+06,   1.72229E+06,   1.72229E+06
C:/temp/Job-49.odb,Step-1,Increment      1: Step Time =    1.000,"P-49-1",           883,       140.749,       20.6935,            0.,NA,NA,"",   1.75257E+06,   1.76011E+06,   1.76011E+06
C:/temp/Job-49.odb,Step-1,Increment      1: Step Time =    1.000,"P-49-1",           884,       18.2716,       137.550,            0.,NA,NA,"",   110.935E+03,   72.8827E+03,   72.8827E+03
C:/temp/Job-49.odb,Step-1,Increment      1: Step Time =    1.000,"P-49-1",           885,       182.584,       139.589,            0.,NA,NA,"",   1.81304E+06,   1.73881E+06,   1.73881E+06
C:/temp/Job-49.odb,Step-1,Increment      1: Step Time =    1.000,"P-49-1",           886,       140.768,       180.916,            0.,NA,NA,"",   1.61957E+06,   1.61667E+06,   1.61667E+06
C:/temp/Job-49.odb,Step-1,Increment      1: Step Time =    1.000,"P-49-1",           887,       43.8242,       42.7557,            0.,NA,NA,"",   1.37156E+06,   1.10653E+06,   1.10653E+06
C:/temp/Job-49.odb,Step-1,Increment      1: Step Time =    1.000,"P-49-1",           888,       153.736,       46.6402,            0.,NA,NA,"",   2.42988E+06,   2.27113E+06,   2.27113E+06
C:/temp/Job-49.odb,Step-1,Increment      1: Step Time =    1.000,"P-49-1",           889,       16.6399,       67.2897,            0.,NA,NA,"",   96.7230E+03,  -55.0645E+03,  -55.0645E+03
C:/temp/Job-49.odb,Step-1,Increment      1: Step Time =    1.000,"P-49-1",           890,       68.7260,       17.0154,            0.,NA,NA,"",   2.66788E+06,   2.49135E+06,   2.49135E+06
C:/temp/Job-49.odb,Step-1,Increment      1: Step Time =    1.000,"P-49-1",           891,       181.604,       130.479,            0.,NA,NA,"",   1.84712E+06,   1.72633E+06,   1.72633E+06
C:/temp/Job-49.odb,Step-1,Increment      1: Step Time =    1.000,"P-49-1",           892,       130.056,       178.948,            0.,NA,NA,"",   1.92192E+06,   2.01891E+06,   2.01891E+06
C:/temp/Job-49.odb,Step-1,Increment      1: Step Time =    1.000,"P-49-1",           893,       20.8984,       131.355,            0.,NA,NA,"",   181.671E+03,  -184.797E+03,  -184.797E+03
C:/temp/Job-49.odb,Step-1,Increment      1: Step Time =    1.000,"P-49-1",           894,       68.9181,       180.505,            0.,NA,NA,"",   2.72278E+06,   2.52107E+06,   2.52107E+06
C:/temp/Job-49.odb,Step-1,Increment      1: Step Time =    1.000,"P-49-1",           895,       179.298,       68.1054,            0.,NA,NA,"",   1.89856E+06,   1.69288E+06,   1.69288E+06
C:/temp/Job-49.odb,Step-1,Increment      1: Step Time =    1.000,"P-49-1",           896,       135.640,       171.149,            0.,NA,NA,"",   2.44141E+06,   2.53214E+06,   2.53214E+06
C:/temp/Job-49.odb,Step-1,Increment      1: Step Time =    1.000,"P-49-1",           897,       74.1288,       175.143,            0.,NA,NA,"",   2.85850E+06,   2.66351E+06,   2.66351E+06
C:/temp/Job-49.odb,Step-1,Increment      1: Step Time =    1.000,"P-49-1",           898,       89.1432,       179.014,            0.,NA,NA,"",   2.76417E+06,   2.72750E+06,   2.72750E+06
C:/temp/Job-49.odb,Step-1,Increment      1: Step Time =    1.000,"P-49-1",           899,       115.264,       16.4428,            0.,NA,NA,"",   1.57844E+06,   1.68642E+06,   1.68642E+06
C:/temp/Job-49.odb,Step-1,Increment      1: Step Time =    1.000,"P-49-1",           900,       18.5372,       80.9266,            0.,NA,NA,"",   292.268E+03,  -330.479E+03,  -330.479E+03
C:/temp/Job-49.odb,Step-1,Increment      1: Step Time =    1.000,"P-49-1",           901,       83.0194,       18.3476,            0.,NA,NA,"",   2.66533E+06,   2.54253E+06,   2.54253E+06
C:/temp/Job-49.odb,Step-1,Increment      1: Step Time =    1.000,"P-49-1",           902,       18.9237,       118.272,            0.,NA,NA,"",   308.436E+03,  -349.437E+03,  -349.437E+03
C:/temp/Job-49.odb,Step-1,Increment      1: Step Time =    1.000,"P-49-1",           903,       79.1782,       180.248,            0.,NA,NA,"",   2.76102E+06,   2.60744E+06,   2.60744E+06
C:/temp/Job-49.odb,Step-1,Increment      1: Step Time =    1.000,"P-49-1",           904,       181.714,       120.611,            0.,NA,NA,"",   1.58548E+06,   1.51698E+06,   1.51698E+06
C:/temp/Job-49.odb,Step-1,Increment      1: Step Time =    1.000,"P-49-1",           905,       21.8199,       80.7214,            0.,NA,NA,"",   340.697E+03,  -382.536E+03,  -382.536E+03
C:/temp/Job-49.odb,Step-1,Increment      1: Step Time =    1.000,"P-49-1",           906,       92.4739,       17.5564,            0.,NA,NA,"",   2.40023E+06,   2.37656E+06,   2.37656E+06
C:/temp/Job-49.odb,Step-1,Increment      1: Step Time =    1.000,"P-49-1",           907,       179.508,       91.1471,            0.,NA,NA,"",   901.385E+03,   849.093E+03,   849.093E+03
C:/temp/Job-49.odb,Step-1,Increment      1: Step Time =    1.000,"P-49-1",           908,       35.8211,       143.845,            0.,NA,NA,"",   527.397E+03,  -155.609E+03,  -155.609E+03
C:/temp/Job-49.odb,Step-1,Increment      1: Step Time =    1.000,"P-49-1",           909,       172.152,       72.9097,            0.,NA,NA,"",   1.87140E+06,   1.28882E+06,   1.28882E+06
C:/temp/Job-49.odb,Step-1,Increment      1: Step Time =    1.000,"P-49-1",           910,       24.9026,       75.1357,            0.,NA,NA,"",   369.262E+03,  -400.488E+03,  -400.488E+03
C:/temp/Job-49.odb,Step-1,Increment      1: Step Time =    1.000,"P-49-1",           911,       109.542,       26.4743,            0.,NA,NA,"",   3.22973E+06,   3.41895E+06,   3.41895E+06
C:/temp/Job-49.odb,Step-1,Increment      1: Step Time =    1.000,"P-49-1",           912,       118.040,       21.1010,            0.,NA,NA,"",   2.14011E+06,   2.29422E+06,   2.29422E+06
C:/temp/Job-49.odb,Step-1,Increment      1: Step Time =    1.000,"P-49-1",           913,       161.092,       133.536,            0.,NA,NA,"",   1.63310E+06,   720.883E+03,   720.883E+03
C:/temp/Job-49.odb,Step-1,Increment      1: Step Time =    1.000,"P-49-1",           914,       172.292,       131.250,            0.,NA,NA,"",   1.99561E+06,   1.48796E+06,   1.48796E+06
C:/temp/Job-49.odb,Step-1,Increment      1: Step Time =    1.000,"P-49-1",           915,       122.075,       175.347,            0.,NA,NA,"",   2.49576E+06,   2.66138E+06,   2.66138E+06
C:/temp/Job-49.odb,Step-1,Increment      1: Step Time =    1.000,"P-49-1",           916,       160.322,       152.136,            0.,NA,NA,"",   2.30559E+06,   2.05692E+06,   2.05692E+06
C:/temp/Job-49.odb,Step-1,Increment      1: Step Time =    1.000,"P-49-1",           917,       58.3885,       168.293,            0.,NA,NA,"",   2.34710E+06,   2.06063E+06,   2.06063E+06
C:/temp/Job-49.odb,Step-1,Increment      1: Step Time =    1.000,"P-49-1",           918,       68.0179,       172.061,            0.,NA,NA,"",   2.73322E+06,   2.48574E+06,   2.48574E+06
C:/temp/Job-49.odb,Step-1,Increment      1: Step Time =    1.000,"P-49-1",           919,       58.5060,       43.4962,            0.,NA,NA,"",   1.39188E+06,   1.08757E+06,   1.08757E+06
C:/temp/Job-49.odb,Step-1,Increment      1: Step Time =    1.000,"P-49-1",           920,       90.5273,       23.6585,            0.,NA,NA,"",   2.98915E+06,   3.00316E+06,   3.00316E+06
C:/temp/Job-49.odb,Step-1,Increment      1: Step Time =    1.000,"P-49-1",           921,       23.2120,       111.804,            0.,NA,NA,"",   372.776E+03,  -427.613E+03,  -427.613E+03
C:/temp/Job-49.odb,Step-1,Increment      1: Step Time =    1.000,"P-49-1",           922,       68.7281,       176.152,            0.,NA,NA,"",   2.77745E+06,   2.54358E+06,   2.54358E+06
C:/temp/Job-49.odb,Step-1,Increment      1: Step Time =    1.000,"P-49-1",           923,       80.0876,       22.7608,            0.,NA,NA,"",   2.89136E+06,   2.75735E+06,   2.75735E+06
C:/temp/Job-49.odb,Step-1,Increment      1: Step Time =    1.000,"P-49-1",           924,       23.0025,       121.472,            0.,NA,NA,"",   360.270E+03,  -399.176E+03,  -399.176E+03
C:/temp/Job-49.odb,Step-1,Increment      1: Step Time =    1.000,"P-49-1",           925,       78.6453,       176.418,            0.,NA,NA,"",   2.89530E+06,   2.74226E+06,   2.74226E+06
C:/temp/Job-49.odb,Step-1,Increment      1: Step Time =    1.000,"P-49-1",           926,       173.835,       75.4067,            0.,NA,NA,"",   1.75166E+06,   1.26115E+06,   1.26115E+06
C:/temp/Job-49.odb,Step-1,Increment      1: Step Time =    1.000,"P-49-1",           927,       137.841,       173.281,            0.,NA,NA,"",   2.25475E+06,   2.31368E+06,   2.31368E+06
C:/temp/Job-49.odb,Step-1,Increment      1: Step Time =    1.000,"P-49-1",           928,       64.2188,       176.137,            0.,NA,NA,"",   2.69738E+06,   2.45713E+06,   2.45713E+06
C:/temp/Job-49.odb,Step-1,Increment      1: Step Time =    1.000,"P-49-1",           929,       174.601,       100.211,            0.,NA,NA,"",   631.085E+03,  -355.578E+03,  -355.578E+03
C:/temp/Job-49.odb,Step-1,Increment      1: Step Time =    1.000,"P-49-1",           930,       99.8440,       179.090,            0.,NA,NA,"",   2.58837E+06,   2.67455E+06,   2.67455E+06
C:/temp/Job-49.odb,Step-1,Increment      1: Step Time =    1.000,"P-49-1",           931,       24.2987,       98.5496,            0.,NA,NA,"",   377.470E+03,  -430.415E+03,  -430.415E+03
C:/temp/Job-49.odb,Step-1,Increment      1: Step Time =    1.000,"P-49-1",           932,       97.2344,       26.1609,            0.,NA,NA,"",   3.31170E+06,   3.42193E+06,   3.42193E+06
C:/temp/Job-49.odb,Step-1,Increment      1: Step Time =    1.000,"P-49-1",           933,       140.848,       25.3746,            0.,NA,NA,"",   2.07959E+06,   2.10318E+06,   2.10318E+06
C:/temp/Job-49.odb,Step-1,Increment      1: Step Time =    1.000,"P-49-1",           934,       23.1090,       140.270,            0.,NA,NA,"",   230.680E+03,   131.554E+03,   131.554E+03
C:/temp/Job-49.odb,Step-1,Increment      1: Step Time =    1.000,"P-49-1",           935,       22.4063,       58.9445,            0.,NA,NA,"",   259.149E+03,   176.015E+03,   176.015E+03
C:/temp/Job-49.odb,Step-1,Increment      1: Step Time =    1.000,"P-49-1",           936,       59.6544,       24.4516,            0.,NA,NA,"",   2.62191E+06,   2.37217E+06,   2.37217E+06
C:/temp/Job-49.odb,Step-1,Increment      1: Step Time =    1.000,"P-49-1",           937,       175.492,       59.6847,            0.,NA,NA,"",   2.06745E+06,   1.76617E+06,   1.76617E+06
C:/temp/Job-49.odb,Step-1,Increment      1: Step Time =    1.000,"P-49-1",           938,       60.7711,       176.702,            0.,NA,NA,"",   2.64149E+06,   2.40920E+06,   2.40920E+06
C:/temp/Job-49.odb,Step-1,Increment      1: Step Time =    1.000,"P-49-1",           939,       178.248,       139.397,            0.,NA,NA,"",   1.98507E+06,   1.76514E+06,   1.76514E+06
C:/temp/Job-49.odb,Step-1,Increment      1: Step Time =    1.000,"P-49-1",           940,       141.238,       176.573,            0.,NA,NA,"",   1.93472E+06,   1.94292E+06,   1.94292E+06
C:/temp/Job-49.odb,Step-1,Increment      1: Step Time =    1.000,"P-49-1",           941,       23.9985,       134.450,            0.,NA,NA,"",   198.619E+03,  -181.455E+03,  -181.455E+03
C:/temp/Job-49.odb,Step-1,Increment      1: Step Time =    1.000,"P-49-1",           942,       23.1959,       70.3001,            0.,NA,NA,"",   257.506E+03,  -270.458E+03,  -270.458E+03
C:/temp/Job-49.odb,Step-1,Increment      1: Step Time =    1.000,"P-49-1",           943,       69.8096,       22.0329,            0.,NA,NA,"",   2.78891E+06,   2.57004E+06,   2.57004E+06
C:/temp/Job-49.odb,Step-1,Increment      1: Step Time =    1.000,"P-49-1",           944,       177.965,       131.736,            0.,NA,NA,"",   1.96814E+06,   1.68292E+06,   1.68292E+06
C:/temp/Job-49.odb,Step-1,Increment      1: Step Time =    1.000,"P-49-1",           945,       111.549,       22.4961,            0.,NA,NA,"",   2.51822E+06,   2.68504E+06,   2.68504E+06
C:/temp/Job-49.odb,Step-1,Increment      1: Step Time =    1.000,"P-49-1",           946,       51.9701,       164.782,            0.,NA,NA,"",   1.98994E+06,   1.70059E+06,   1.70059E+06
C:/temp/Job-49.odb,Step-1,Increment      1: Step Time =    1.000,"P-49-1",           947,       152.033,       165.314,            0.,NA,NA,"",   2.28972E+06,   2.20133E+06,   2.20133E+06
C:/temp/Job-49.odb,Step-1,Increment      1: Step Time =    1.000,"P-49-1",           948,       59.4255,       172.728,            0.,NA,NA,"",   2.54250E+06,   2.27951E+06,   2.27951E+06
C:/temp/Job-49.odb,Step-1,Increment      1: Step Time =    1.000,"P-49-1",           949,       148.367,       37.4615,            0.,NA,NA,"",   2.45694E+06,   2.41039E+06,   2.41039E+06
C:/temp/Job-49.odb,Step-1,Increment      1: Step Time =    1.000,"P-49-1",           950,       51.5167,       37.2583,            0.,NA,NA,"",   1.87824E+06,   1.57401E+06,   1.57401E+06
C:/temp/Job-49.odb,Step-1,Increment      1: Step Time =    1.000,"P-49-1",           951,       133.120,       174.615,            0.,NA,NA,"",   2.26759E+06,   2.36937E+06,   2.36937E+06
C:/temp/Job-49.odb,Step-1,Increment      1: Step Time =    1.000,"P-49-1",           952,       58.5139,       36.9329,            0.,NA,NA,"",   2.02764E+06,   1.72384E+06,   1.72384E+06
C:/temp/Job-49.odb,Step-1,Increment      1: Step Time =    1.000,"P-49-1",           953,       26.6301,       138.117,            0.,NA,NA,"",   248.277E+03,  -99.0991E+03,  -99.0991E+03
C:/temp/Job-49.odb,Step-1,Increment      1: Step Time =    1.000,"P-49-1",           954,       26.9492,       131.839,            0.,NA,NA,"",   313.147E+03,   -321.82E+03,   -321.82E+03
C:/temp/Job-49.odb,Step-1,Increment      1: Step Time =    1.000,"P-49-1",           955,       14.8575,       56.8786,            0.,NA,NA,"",   292.023E+03,   317.743E+03,   317.743E+03
C:/temp/Job-49.odb,Step-1,Increment      1: Step Time =    1.000,"P-49-1",           956,       55.1271,       14.9449,            0.,NA,NA,"",   2.65999E+06,   2.53971E+06,   2.53971E+06
C:/temp/Job-49.odb,Step-1,Increment      1: Step Time =    1.000,"P-49-1",           957,       186.971,       144.173,            0.,NA,NA,"",   1.53318E+06,   1.58515E+06,   1.58515E+06
C:/temp/Job-49.odb,Step-1,Increment      1: Step Time =    1.000,"P-49-1",           958,       145.235,       185.626,            0.,NA,NA,"",   1.26597E+06,   1.23095E+06,   1.23095E+06
C:/temp/Job-49.odb,Step-1,Increment      1: Step Time =    1.000,"P-49-1",           959,       55.0541,       186.370,            0.,NA,NA,"",   2.67331E+06,   2.56753E+06,   2.56753E+06
C:/temp/Job-49.odb,Step-1,Increment      1: Step Time =    1.000,"P-49-1",           960,       186.222,       54.7671,            0.,NA,NA,"",   1.57025E+06,   1.59284E+06,   1.59284E+06
C:/temp/Job-49.odb,Step-1,Increment      1: Step Time =    1.000,"P-49-1",           961,       146.816,       15.5694,            0.,NA,NA,"",   1.34819E+06,   1.31234E+06,   1.31234E+06
C:/temp/Job-49.odb,Step-1,Increment      1: Step Time =    1.000,"P-49-1",           962,       14.8439,       146.527,            0.,NA,NA,"",   435.571E+03,   472.261E+03,   472.261E+03
C:/temp/Job-49.odb,Step-1,Increment      1: Step Time =    1.000,"P-49-1",           963,       102.975,       34.9331,            0.,NA,NA,"",   5.25341E+06,   5.37915E+06,   5.37915E+06
C:/temp/Job-49.odb,Step-1,Increment      1: Step Time =    1.000,"P-49-1",           964,       77.0415,       170.721,            0.,NA,NA,"",   2.92298E+06,   2.78907E+06,   2.78907E+06
C:/temp/Job-49.odb,Step-1,Increment      1: Step Time =    1.000,"P-49-1",           965,       122.683,       23.5822,            0.,NA,NA,"",   2.37141E+06,   2.52842E+06,   2.52842E+06
C:/temp/Job-49.odb,Step-1,Increment      1: Step Time =    1.000,"P-49-1",           966,       159.914,       46.2664,            0.,NA,NA,"",   2.31815E+06,   2.07982E+06,   2.07982E+06
C:/temp/Job-49.odb,Step-1,Increment      1: Step Time =    1.000,"P-49-1",           967,       141.046,       172.389,            0.,NA,NA,"",   2.22280E+06,   2.25115E+06,   2.25115E+06
C:/temp/Job-49.odb,Step-1,Increment      1: Step Time =    1.000,"P-49-1",           968,       175.380,       134.189,            0.,NA,NA,"",   2.05756E+06,   1.68636E+06,   1.68636E+06
C:/temp/Job-49.odb,Step-1,Increment      1: Step Time =    1.000,"P-49-1",           969,       177.672,       78.1384,            0.,NA,NA,"",   1.60657E+06,   1.31708E+06,   1.31708E+06
C:/temp/Job-49.odb,Step-1,Increment      1: Step Time =    1.000,"P-49-1",           970,       19.8016,       125.071,            0.,NA,NA,"",   266.247E+03,  -291.682E+03,  -291.682E+03
C:/temp/Job-49.odb,Step-1,Increment      1: Step Time =    1.000,"P-49-1",           971,       120.432,       181.501,            0.,NA,NA,"",   1.77608E+06,   1.89556E+06,   1.89556E+06
C:/temp/Job-49.odb,Step-1,Increment      1: Step Time =    1.000,"P-49-1",           972,       79.0392,       18.4449,            0.,NA,NA,"",   2.69868E+06,   2.54700E+06,   2.54700E+06
C:/temp/Job-49.odb,Step-1,Increment      1: Step Time =    1.000,"P-49-1",           973,       36.2734,       151.527,            0.,NA,NA,"",   890.452E+03,   703.473E+03,   703.473E+03
C:/temp/Job-49.odb,Step-1,Increment      1: Step Time =    1.000,"P-49-1",           974,       164.073,       149.377,            0.,NA,NA,"",   2.24545E+06,   1.93630E+06,   1.93630E+06
C:/temp/Job-49.odb,Step-1,Increment      1: Step Time =    1.000,"P-49-1",           975,       164.410,       139.081,            0.,NA,NA,"",   2.09964E+06,   1.62635E+06,   1.62635E+06
C:/temp/Job-49.odb,Step-1,Increment      1: Step Time =    1.000,"P-49-1",           976,       162.359,       156.544,            0.,NA,NA,"",   2.22608E+06,   2.01078E+06,   2.01078E+06
C:/temp/Job-49.odb,Step-1,Increment      1: Step Time =    1.000,"P-49-1",           977,       44.2838,       161.041,            0.,NA,NA,"",   1.60915E+06,   1.36035E+06,   1.36035E+06
C:/temp/Job-49.odb,Step-1,Increment      1: Step Time =    1.000,"P-49-1",           978,       173.319,       138.407,            0.,NA,NA,"",   2.11910E+06,   1.73166E+06,   1.73166E+06
C:/temp/Job-49.odb,Step-1,Increment      1: Step Time =    1.000,"P-49-1",           979,       77.1215,       28.4300,            0.,NA,NA,"",   2.93018E+06,   2.79566E+06,   2.79566E+06
C:/temp/Job-49.odb,Step-1,Increment      1: Step Time =    1.000,"P-49-1",           980,       9.46053,       56.0070,            0.,NA,NA,"",   334.995E+03,   374.994E+03,   374.994E+03
C:/temp/Job-49.odb,Step-1,Increment      1: Step Time =    1.000,"P-49-1",           981,       55.1803,       190.993,            0.,NA,NA,"",   2.72968E+06,   2.67367E+06,   2.67367E+06
C:/temp/Job-49.odb,Step-1,Increment      1: Step Time =    1.000,"P-49-1",           982,       145.991,       10.2842,            0.,NA,NA,"",   957.732E+03,   923.953E+03,   923.953E+03
C:/temp/Job-49.odb,Step-1,Increment      1: Step Time =    1.000,"P-49-1",           983,       191.287,       144.362,            0.,NA,NA,"",   1.31077E+06,   1.45117E+06,   1.45117E+06
C:/temp/Job-49.odb,Step-1,Increment      1: Step Time =    1.000,"P-49-1",           984,       92.2390,       27.8326,            0.,NA,NA,"",   3.39990E+06,   3.47971E+06,   3.47971E+06
C:/temp/Job-49.odb,Step-1,Increment      1: Step Time =    1.000,"P-49-1",           985,       25.4696,       103.957,            0.,NA,NA,"",   411.191E+03,  -471.140E+03,  -471.140E+03
C:/temp/Job-49.odb,Step-1,Increment      1: Step Time =    1.000,"P-49-1",           986,       81.6803,       26.9544,            0.,NA,NA,"",   3.03482E+06,   2.95387E+06,   2.95387E+06
C:/temp/Job-49.odb,Step-1,Increment      1: Step Time =    1.000,"P-49-1",           987,       136.381,       26.4038,            0.,NA,NA,"",   2.25267E+06,   2.32363E+06,   2.32363E+06
C:/temp/Job-49.odb,Step-1,Increment      1: Step Time =    1.000,"P-49-1",           988,       25.5171,       63.5494,            0.,NA,NA,"",   227.930E+03,  -116.429E+03,  -116.429E+03
C:/temp/Job-49.odb,Step-1,Increment      1: Step Time =    1.000,"P-49-1",           989,       62.3520,       29.5302,            0.,NA,NA,"",   2.54481E+06,   2.27007E+06,   2.27007E+06
C:/temp/Job-49.odb,Step-1,Increment      1: Step Time =    1.000,"P-49-1",           990,       174.431,       63.2909,            0.,NA,NA,"",   2.07485E+06,   1.70614E+06,   1.70614E+06
C:/temp/Job-49.odb,Step-1,Increment      1: Step Time =    1.000,"P-49-1",           991,       103.274,       24.3694,            0.,NA,NA,"",   3.03277E+06,   3.17341E+06,   3.17341E+06
C:/temp/Job-49.odb,Step-1,Increment      1: Step Time =    1.000,"P-49-1",           992,       155.751,       164.204,            0.,NA,NA,"",   2.22500E+06,   2.10353E+06,   2.10353E+06
C:/temp/Job-49.odb,Step-1,Increment      1: Step Time =    1.000,"P-49-1",           993,       54.5859,       34.2592,            0.,NA,NA,"",   2.12684E+06,   1.82629E+06,   1.82629E+06
C:/temp/Job-49.odb,Step-1,Increment      1: Step Time =    1.000,"P-49-1",           994,       152.873,       36.4020,            0.,NA,NA,"",   2.29744E+06,   2.19523E+06,   2.19523E+06
C:/temp/Job-49.odb,Step-1,Increment      1: Step Time =    1.000,"P-49-1",           995,       143.724,       38.7819,            0.,NA,NA,"",   2.70377E+06,   2.72744E+06,   2.72744E+06
C:/temp/Job-49.odb,Step-1,Increment      1: Step Time =    1.000,"P-49-1",           996,       48.2896,       34.1107,            0.,NA,NA,"",   1.99649E+06,   1.73233E+06,   1.73233E+06
C:/temp/Job-49.odb,Step-1,Increment      1: Step Time =    1.000,"P-49-1",           997,       128.926,       19.4432,            0.,NA,NA,"",   1.76209E+06,   1.85096E+06,   1.85096E+06
C:/temp/Job-49.odb,Step-1,Increment      1: Step Time =    1.000,"P-49-1",           998,       29.2776,       142.115,            0.,NA,NA,"",   355.949E+03,   15.6333E+03,   15.6333E+03
C:/temp/Job-49.odb,Step-1,Increment      1: Step Time =    1.000,"P-49-1",           999,       28.4456,       148.583,            0.,NA,NA,"",   631.230E+03,   555.588E+03,   555.588E+03
C:/temp/Job-49.odb,Step-1,Increment      1: Step Time =    1.000,"P-49-1",          1000,       164.110,       143.885,            0.,NA,NA,"",   2.20345E+06,   1.81322E+06,   1.81322E+06
C:/temp/Job-49.odb,Step-1,Increment      1: Step Time =    1.000,"P-49-1",          1001,       159.361,       162.362,            0.,NA,NA,"",   2.16675E+06,   2.01318E+06,   2.01318E+06
C:/temp/Job-49.odb,Step-1,Increment      1: Step Time =    1.000,"P-49-1",          1002,       167.068,       154.838,            0.,NA,NA,"",   2.12825E+06,   1.89466E+06,   1.89466E+06
C:/temp/Job-49.odb,Step-1,Increment      1: Step Time =    1.000,"P-49-1",          1003,       145.836,       170.992,            0.,NA,NA,"",   2.18478E+06,   2.16491E+06,   2.16491E+06
C:/temp/Job-49.odb,Step-1,Increment      1: Step Time =    1.000,"P-49-1",          1004,       46.6879,       166.203,            0.,NA,NA,"",   1.96177E+06,   1.72065E+06,   1.72065E+06
C:/temp/Job-49.odb,Step-1,Increment      1: Step Time =    1.000,"P-49-1",          1005,       164.302,       43.1178,            0.,NA,NA,"",   2.16547E+06,   1.94737E+06,   1.94737E+06
C:/temp/Job-49.odb,Step-1,Increment      1: Step Time =    1.000,"P-49-1",          1006,       169.002,       143.937,            0.,NA,NA,"",   2.19105E+06,   1.81327E+06,   1.81327E+06
C:/temp/Job-49.odb,Step-1,Increment      1: Step Time =    1.000,"P-49-1",          1007,       175.536,       120.651,            0.,NA,NA,"",   1.54066E+06,   670.234E+03,   670.234E+03
C:/temp/Job-49.odb,Step-1,Increment      1: Step Time =    1.000,"P-49-1",          1008,       39.3892,       164.078,            0.,NA,NA,"",   1.70245E+06,   1.52748E+06,   1.52748E+06
C:/temp/Job-49.odb,Step-1,Increment      1: Step Time =    1.000,"P-49-1",          1009,       178.670,       135.275,            0.,NA,NA,"",   1.99342E+06,   1.75797E+06,   1.75797E+06
C:/temp/Job-49.odb,Step-1,Increment      1: Step Time =    1.000,"P-49-1",          1010,       164.604,       49.4554,            0.,NA,NA,"",   2.25475E+06,   1.96025E+06,   1.96025E+06
C:/temp/Job-49.odb,Step-1,Increment      1: Step Time =    1.000,"P-49-1",          1011,       98.1608,       30.6351,            0.,NA,NA,"",   4.03718E+06,   4.17065E+06,   4.17065E+06
C:/temp/Job-49.odb,Step-1,Increment      1: Step Time =    1.000,"P-49-1",          1012,       179.182,       87.5696,            0.,NA,NA,"",   1.08543E+06,   979.993E+03,   979.993E+03
C:/temp/Job-49.odb,Step-1,Increment      1: Step Time =    1.000,"P-49-1",          1013,       82.4634,       173.553,            0.,NA,NA,"",   3.02606E+06,   2.94696E+06,   2.94696E+06
C:/temp/Job-49.odb,Step-1,Increment      1: Step Time =    1.000,"P-49-1",          1014,       51.2205,       183.553,            0.,NA,NA,"",   2.62970E+06,   2.51177E+06,   2.51177E+06
C:/temp/Job-49.odb,Step-1,Increment      1: Step Time =    1.000,"P-49-1",          1015,       185.815,       50.1956,            0.,NA,NA,"",   1.48419E+06,   1.50295E+06,   1.50295E+06
C:/temp/Job-49.odb,Step-1,Increment      1: Step Time =    1.000,"P-49-1",          1016,       183.121,       148.910,            0.,NA,NA,"",   1.64614E+06,   1.59962E+06,   1.59962E+06
C:/temp/Job-49.odb,Step-1,Increment      1: Step Time =    1.000,"P-49-1",          1017,       150.045,       185.707,            0.,NA,NA,"",   1.25111E+06,   1.20695E+06,   1.20695E+06
C:/temp/Job-49.odb,Step-1,Increment      1: Step Time =    1.000,"P-49-1",          1018,       14.4130,       51.9913,            0.,NA,NA,"",   504.701E+03,   546.754E+03,   546.754E+03
C:/temp/Job-49.odb,Step-1,Increment      1: Step Time =    1.000,"P-49-1",          1019,       49.5163,       14.9738,            0.,NA,NA,"",   2.66588E+06,   2.56464E+06,   2.56464E+06
C:/temp/Job-49.odb,Step-1,Increment      1: Step Time =    1.000,"P-49-1",          1020,       14.6629,       151.266,            0.,NA,NA,"",   651.363E+03,   700.475E+03,   700.475E+03
C:/temp/Job-49.odb,Step-1,Increment      1: Step Time =    1.000,"P-49-1",          1021,       88.3116,       19.4711,            0.,NA,NA,"",   2.66175E+06,   2.60816E+06,   2.60816E+06
C:/temp/Job-49.odb,Step-1,Increment      1: Step Time =    1.000,"P-49-1",          1022,       110.670,       179.322,            0.,NA,NA,"",   2.30002E+06,   2.44811E+06,   2.44811E+06
C:/temp/Job-49.odb,Step-1,Increment      1: Step Time =    1.000,"P-49-1",          1023,       164.081,       10.0286,            0.,NA,NA,"",   1.01807E+06,   991.442E+03,   991.442E+03
C:/temp/Job-49.odb,Step-1,Increment      1: Step Time =    1.000,"P-49-1",          1024,       9.25515,       165.165,            0.,NA,NA,"",   1.31900E+06,   1.43626E+06,   1.43626E+06
C:/temp/Job-49.odb,Step-1,Increment      1: Step Time =    1.000,"P-49-1",          1025,       10.2512,       36.4975,            0.,NA,NA,"",   1.23523E+06,   1.34093E+06,   1.34093E+06
C:/temp/Job-49.odb,Step-1,Increment      1: Step Time =    1.000,"P-49-1",          1026,       34.7948,       9.14489,            0.,NA,NA,"",   2.93986E+06,   2.91976E+06,   2.91976E+06
C:/temp/Job-49.odb,Step-1,Increment      1: Step Time =    1.000,"P-49-1",          1027,       189.521,       164.391,            0.,NA,NA,"",   1.12750E+06,   1.16003E+06,   1.16003E+06
C:/temp/Job-49.odb,Step-1,Increment      1: Step Time =    1.000,"P-49-1",          1028,       164.405,       190.413,            0.,NA,NA,"",   1.00092E+06,   976.402E+03,   976.402E+03
C:/temp/Job-49.odb,Step-1,Increment      1: Step Time =    1.000,"P-49-1",          1029,       190.815,       35.8004,            0.,NA,NA,"",   1.09468E+06,   1.13435E+06,   1.13435E+06
C:/temp/Job-49.odb,Step-1,Increment      1: Step Time =    1.000,"P-49-1",          1030,       35.5102,       189.731,            0.,NA,NA,"",   2.89059E+06,   2.86510E+06,   2.86510E+06
C:/temp/Job-49.odb,Step-1,Increment      1: Step Time =    1.000,"P-49-1",          1031,       54.8497,       174.269,            0.,NA,NA,"",   2.49040E+06,   2.25316E+06,   2.25316E+06
C:/temp/Job-49.odb,Step-1,Increment      1: Step Time =    1.000,"P-49-1",          1032,       56.8628,       31.0776,            0.,NA,NA,"",   2.32989E+06,   2.04523E+06,   2.04523E+06
C:/temp/Job-49.odb,Step-1,Increment      1: Step Time =    1.000,"P-49-1",          1033,       164.059,       14.6601,            0.,NA,NA,"",   1.21179E+06,   1.16874E+06,   1.16874E+06
C:/temp/Job-49.odb,Step-1,Increment      1: Step Time =    1.000,"P-49-1",          1034,       13.8182,       165.405,            0.,NA,NA,"",   1.39504E+06,   1.48226E+06,   1.48226E+06
C:/temp/Job-49.odb,Step-1,Increment      1: Step Time =    1.000,"P-49-1",          1035,       15.3688,       37.3114,            0.,NA,NA,"",   1.25138E+06,   1.32213E+06,   1.32213E+06
C:/temp/Job-49.odb,Step-1,Increment      1: Step Time =    1.000,"P-49-1",          1036,       34.4904,       13.4193,            0.,NA,NA,"",   2.74097E+06,   2.70670E+06,   2.70670E+06
C:/temp/Job-49.odb,Step-1,Increment      1: Step Time =    1.000,"P-49-1",          1037,       184.945,       165.138,            0.,NA,NA,"",   1.25306E+06,   1.25777E+06,   1.25777E+06
C:/temp/Job-49.odb,Step-1,Increment      1: Step Time =    1.000,"P-49-1",          1038,       164.087,       185.681,            0.,NA,NA,"",   1.18553E+06,   1.14511E+06,   1.14511E+06
C:/temp/Job-49.odb,Step-1,Increment      1: Step Time =    1.000,"P-49-1",          1039,       186.606,       36.1815,            0.,NA,NA,"",   1.22693E+06,   1.24286E+06,   1.24286E+06
C:/temp/Job-49.odb,Step-1,Increment      1: Step Time =    1.000,"P-49-1",          1040,       35.2146,       184.959,            0.,NA,NA,"",   2.66764E+06,   2.62007E+06,   2.62007E+06
C:/temp/Job-49.odb,Step-1,Increment      1: Step Time =    1.000,"P-49-1",          1041,       173.714,       143.892,            0.,NA,NA,"",   2.09240E+06,   1.78826E+06,   1.78826E+06
C:/temp/Job-49.odb,Step-1,Increment      1: Step Time =    1.000,"P-49-1",          1042,       141.753,       29.9099,            0.,NA,NA,"",   2.33885E+06,   2.37024E+06,   2.37024E+06
C:/temp/Job-49.odb,Step-1,Increment      1: Step Time =    1.000,"P-49-1",          1043,       26.0549,       56.5714,            0.,NA,NA,"",   385.289E+03,   320.334E+03,   320.334E+03
C:/temp/Job-49.odb,Step-1,Increment      1: Step Time =    1.000,"P-49-1",          1044,       171.275,       57.8776,            0.,NA,NA,"",   2.15373E+06,   1.78555E+06,   1.78555E+06
C:/temp/Job-49.odb,Step-1,Increment      1: Step Time =    1.000,"P-49-1",          1045,       94.9040,       35.2841,            0.,NA,NA,"",   4.76509E+06,   4.85132E+06,   4.85132E+06
C:/temp/Job-49.odb,Step-1,Increment      1: Step Time =    1.000,"P-49-1",          1046,       144.651,       43.1742,            0.,NA,NA,"",   2.75232E+06,   2.76241E+06,   2.76241E+06
C:/temp/Job-49.odb,Step-1,Increment      1: Step Time =    1.000,"P-49-1",          1047,       45.0464,       36.5948,            0.,NA,NA,"",   1.77934E+06,   1.52923E+06,   1.52923E+06
C:/temp/Job-49.odb,Step-1,Increment      1: Step Time =    1.000,"P-49-1",          1048,       154.759,       8.05766,            0.,NA,NA,"",   888.395E+03,   860.115E+03,   860.115E+03
C:/temp/Job-49.odb,Step-1,Increment      1: Step Time =    1.000,"P-49-1",          1049,       9.90455,       46.3002,            0.,NA,NA,"",   748.258E+03,   823.818E+03,   823.818E+03
C:/temp/Job-49.odb,Step-1,Increment      1: Step Time =    1.000,"P-49-1",          1050,       190.622,       153.605,            0.,NA,NA,"",   1.18765E+06,   1.27777E+06,   1.27777E+06
C:/temp/Job-49.odb,Step-1,Increment      1: Step Time =    1.000,"P-49-1",          1051,       46.0358,       190.495,            0.,NA,NA,"",   2.83936E+06,   2.79853E+06,   2.79853E+06
C:/temp/Job-49.odb,Step-1,Increment      1: Step Time =    1.000,"P-49-1",          1052,       25.4156,       144.324,            0.,NA,NA,"",   388.281E+03,   330.743E+03,   330.743E+03
C:/temp/Job-49.odb,Step-1,Increment      1: Step Time =    1.000,"P-49-1",          1053,       163.633,       161.033,            0.,NA,NA,"",   2.08498E+06,   1.91271E+06,   1.91271E+06
C:/temp/Job-49.odb,Step-1,Increment      1: Step Time =    1.000,"P-49-1",          1054,       150.751,       172.382,            0.,NA,NA,"",   1.98755E+06,   1.92547E+06,   1.92547E+06
C:/temp/Job-49.odb,Step-1,Increment      1: Step Time =    1.000,"P-49-1",          1055,       67.0692,       26.3517,            0.,NA,NA,"",   2.73139E+06,   2.48772E+06,   2.48772E+06
C:/temp/Job-49.odb,Step-1,Increment      1: Step Time =    1.000,"P-49-1",          1056,       48.3842,       171.066,            0.,NA,NA,"",   2.23453E+06,   2.01393E+06,   2.01393E+06
C:/temp/Job-49.odb,Step-1,Increment      1: Step Time =    1.000,"P-49-1",          1057,       162.923,       38.8738,            0.,NA,NA,"",   2.10916E+06,   1.93050E+06,   1.93050E+06
C:/temp/Job-49.odb,Step-1,Increment      1: Step Time =    1.000,"P-49-1",          1058,       167.010,       45.7015,            0.,NA,NA,"",   2.15143E+06,   1.91152E+06,   1.91152E+06
C:/temp/Job-49.odb,Step-1,Increment      1: Step Time =    1.000,"P-49-1",          1059,       190.653,       45.3554,            0.,NA,NA,"",   1.16872E+06,   1.25433E+06,   1.25433E+06
C:/temp/Job-49.odb,Step-1,Increment      1: Step Time =    1.000,"P-49-1",          1060,       154.851,       190.441,            0.,NA,NA,"",   966.893E+03,   933.679E+03,   933.679E+03
C:/temp/Job-49.odb,Step-1,Increment      1: Step Time =    1.000,"P-49-1",          1061,       44.5680,       9.78628,            0.,NA,NA,"",   2.84636E+06,   2.80531E+06,   2.80531E+06
C:/temp/Job-49.odb,Step-1,Increment      1: Step Time =    1.000,"P-49-1",          1062,       9.54998,       155.610,            0.,NA,NA,"",   835.855E+03,   918.233E+03,   918.233E+03
C:/temp/Job-49.odb,Step-1,Increment      1: Step Time =    1.000,"P-49-1",          1063,       49.7998,       176.967,            0.,NA,NA,"",   2.47768E+06,   2.29802E+06,   2.29802E+06
C:/temp/Job-49.odb,Step-1,Increment      1: Step Time =    1.000,"P-49-1",          1064,       35.6213,       159.623,            0.,NA,NA,"",   1.36359E+06,   1.21856E+06,   1.21856E+06
C:/temp/Job-49.odb,Step-1,Increment      1: Step Time =    1.000,"P-49-1",          1065,       87.8024,       29.5538,            0.,NA,NA,"",   3.36090E+06,   3.39943E+06,   3.39943E+06
C:/temp/Job-49.odb,Step-1,Increment      1: Step Time =    1.000,"P-49-1",          1066,       142.792,       34.2790,            0.,NA,NA,"",   2.53834E+06,   2.56863E+06,   2.56863E+06
C:/temp/Job-49.odb,Step-1,Increment      1: Step Time =    1.000,"P-49-1",          1067,       150.225,       176.637,            0.,NA,NA,"",   1.79148E+06,   1.73778E+06,   1.73778E+06
C:/temp/Job-49.odb,Step-1,Increment      1: Step Time =    1.000,"P-49-1",          1068,       26.2268,       107.709,            0.,NA,NA,"",   439.776E+03,  -499.150E+03,  -499.150E+03
C:/temp/Job-49.odb,Step-1,Increment      1: Step Time =    1.000,"P-49-1",          1069,       169.910,       152.103,            0.,NA,NA,"",   2.11251E+06,   1.85563E+06,   1.85563E+06
C:/temp/Job-49.odb,Step-1,Increment      1: Step Time =    1.000,"P-49-1",          1070,       127.736,       23.8429,            0.,NA,NA,"",   2.25568E+06,   2.38566E+06,   2.38566E+06
C:/temp/Job-49.odb,Step-1,Increment      1: Step Time =    1.000,"P-49-1",          1071,       151.696,       31.6672,            0.,NA,NA,"",   2.15919E+06,   2.08404E+06,   2.08404E+06
C:/temp/Job-49.odb,Step-1,Increment      1: Step Time =    1.000,"P-49-1",          1072,       49.0645,       28.7908,            0.,NA,NA,"",   2.26520E+06,   2.03505E+06,   2.03505E+06
C:/temp/Job-49.odb,Step-1,Increment      1: Step Time =    1.000,"P-49-1",          1073,       154.810,       176.642,            0.,NA,NA,"",   1.72198E+06,   1.65084E+06,   1.65084E+06
C:/temp/Job-49.odb,Step-1,Increment      1: Step Time =    1.000,"P-49-1",          1074,       132.229,       27.9104,            0.,NA,NA,"",   2.50898E+06,   2.62697E+06,   2.62697E+06
C:/temp/Job-49.odb,Step-1,Increment      1: Step Time =    1.000,"P-49-1",          1075,       164.073,       165.758,            0.,NA,NA,"",   1.93551E+06,   1.80215E+06,   1.80215E+06
C:/temp/Job-49.odb,Step-1,Increment      1: Step Time =    1.000,"P-49-1",          1076,       167.995,       165.215,            0.,NA,NA,"",   1.82826E+06,   1.70145E+06,   1.70145E+06
C:/temp/Job-49.odb,Step-1,Increment      1: Step Time =    1.000,"P-49-1",          1077,       138.405,       35.3721,            0.,NA,NA,"",   2.78434E+06,   2.86763E+06,   2.86763E+06
C:/temp/Job-49.odb,Step-1,Increment      1: Step Time =    1.000,"P-49-1",          1078,       38.0839,       39.7521,            0.,NA,NA,"",   1.46426E+06,   1.29196E+06,   1.29196E+06
C:/temp/Job-49.odb,Step-1,Increment      1: Step Time =    1.000,"P-49-1",          1079,       53.6969,       29.5098,            0.,NA,NA,"",   2.33015E+06,   2.06341E+06,   2.06341E+06
C:/temp/Job-49.odb,Step-1,Increment      1: Step Time =    1.000,"P-49-1",          1080,       13.5301,       170.039,            0.,NA,NA,"",   1.66212E+06,   1.76012E+06,   1.76012E+06
C:/temp/Job-49.odb,Step-1,Increment      1: Step Time =    1.000,"P-49-1",          1081,       168.876,       19.0334,            0.,NA,NA,"",   1.31103E+06,   1.26312E+06,   1.26312E+06
C:/temp/Job-49.odb,Step-1,Increment      1: Step Time =    1.000,"P-49-1",          1082,       15.4157,       32.4950,            0.,NA,NA,"",   1.53918E+06,   1.61636E+06,   1.61636E+06
C:/temp/Job-49.odb,Step-1,Increment      1: Step Time =    1.000,"P-49-1",          1083,       29.9569,       13.2310,            0.,NA,NA,"",   2.76397E+06,   2.74240E+06,   2.74240E+06
C:/temp/Job-49.odb,Step-1,Increment      1: Step Time =    1.000,"P-49-1",          1084,       181.967,       170.362,            0.,NA,NA,"",   1.26379E+06,   1.25080E+06,   1.25080E+06
C:/temp/Job-49.odb,Step-1,Increment      1: Step Time =    1.000,"P-49-1",          1085,       168.637,       185.668,            0.,NA,NA,"",   1.15715E+06,   1.12474E+06,   1.12474E+06
C:/temp/Job-49.odb,Step-1,Increment      1: Step Time =    1.000,"P-49-1",          1086,       30.8492,       184.980,            0.,NA,NA,"",   2.67585E+06,   2.64582E+06,   2.64582E+06
C:/temp/Job-49.odb,Step-1,Increment      1: Step Time =    1.000,"P-49-1",          1087,       186.089,       32.0059,            0.,NA,NA,"",   1.18541E+06,   1.19375E+06,   1.19375E+06
C:/temp/Job-49.odb,Step-1,Increment      1: Step Time =    1.000,"P-49-1",          1088,       133.556,       43.0530,            0.,NA,NA,"",   3.92176E+06,   4.02461E+06,   4.02461E+06
C:/temp/Job-49.odb,Step-1,Increment      1: Step Time =    1.000,"P-49-1",          1089,       146.129,       28.6921,            0.,NA,NA,"",   2.15019E+06,   2.13197E+06,   2.13197E+06
C:/temp/Job-49.odb,Step-1,Increment      1: Step Time =    1.000,"P-49-1",          1090,       23.0217,       53.4391,            0.,NA,NA,"",   482.475E+03,   469.834E+03,   469.834E+03
C:/temp/Job-49.odb,Step-1,Increment      1: Step Time =    1.000,"P-49-1",          1091,       173.214,       53.5526,            0.,NA,NA,"",   2.08877E+06,   1.80993E+06,   1.80993E+06
C:/temp/Job-49.odb,Step-1,Increment      1: Step Time =    1.000,"P-49-1",          1092,       24.5896,       153.355,            0.,NA,NA,"",   831.268E+03,   808.421E+03,   808.421E+03
C:/temp/Job-49.odb,Step-1,Increment      1: Step Time =    1.000,"P-49-1",          1093,       157.292,       35.3680,            0.,NA,NA,"",   2.15408E+06,   2.02373E+06,   2.02373E+06
C:/temp/Job-49.odb,Step-1,Increment      1: Step Time =    1.000,"P-49-1",          1094,       185.902,       45.3891,            0.,NA,NA,"",   1.38785E+06,   1.40632E+06,   1.40632E+06
C:/temp/Job-49.odb,Step-1,Increment      1: Step Time =    1.000,"P-49-1",          1095,       154.836,       185.727,            0.,NA,NA,"",   1.23515E+06,   1.18776E+06,   1.18776E+06
C:/temp/Job-49.odb,Step-1,Increment      1: Step Time =    1.000,"P-49-1",          1096,       44.0674,       14.7367,            0.,NA,NA,"",   2.67436E+06,   2.59860E+06,   2.59860E+06
C:/temp/Job-49.odb,Step-1,Increment      1: Step Time =    1.000,"P-49-1",          1097,       14.4312,       156.039,            0.,NA,NA,"",   887.497E+03,   949.932E+03,   949.932E+03
C:/temp/Job-49.odb,Step-1,Increment      1: Step Time =    1.000,"P-49-1",          1098,       48.8130,       182.678,            0.,NA,NA,"",   2.60154E+06,   2.47950E+06,   2.47950E+06
C:/temp/Job-49.odb,Step-1,Increment      1: Step Time =    1.000,"P-49-1",          1099,       35.0465,       167.102,            0.,NA,NA,"",    1.7918E+06,   1.67560E+06,   1.67560E+06
C:/temp/Job-49.odb,Step-1,Increment      1: Step Time =    1.000,"P-49-1",          1100,       67.1037,       35.8396,            0.,NA,NA,"",   2.28659E+06,   2.07314E+06,   2.07314E+06
C:/temp/Job-49.odb,Step-1,Increment      1: Step Time =    1.000,"P-49-1",          1101,       166.885,       56.0362,            0.,NA,NA,"",   2.21503E+06,   1.82959E+06,   1.82959E+06
C:/temp/Job-49.odb,Step-1,Increment      1: Step Time =    1.000,"P-49-1",          1102,       167.603,       37.5219,            0.,NA,NA,"",   1.92264E+06,   1.76909E+06,   1.76909E+06
C:/temp/Job-49.odb,Step-1,Increment      1: Step Time =    1.000,"P-49-1",          1103,       43.6585,       176.008,            0.,NA,NA,"",   2.35596E+06,   2.20995E+06,   2.20995E+06
C:/temp/Job-49.odb,Step-1,Increment      1: Step Time =    1.000,"P-49-1",          1104,       24.2482,       50.3916,            0.,NA,NA,"",   631.758E+03,   610.945E+03,   610.945E+03
C:/temp/Job-49.odb,Step-1,Increment      1: Step Time =    1.000,"P-49-1",          1105,       150.167,       26.8299,            0.,NA,NA,"",   1.96708E+06,   1.91314E+06,   1.91314E+06
C:/temp/Job-49.odb,Step-1,Increment      1: Step Time =    1.000,"P-49-1",          1106,       175.227,       48.9172,            0.,NA,NA,"",   1.95071E+06,   1.75542E+06,   1.75542E+06
C:/temp/Job-49.odb,Step-1,Increment      1: Step Time =    1.000,"P-49-1",          1107,       67.2815,       30.5034,            0.,NA,NA,"",   2.62760E+06,   2.38195E+06,   2.38195E+06
C:/temp/Job-49.odb,Step-1,Increment      1: Step Time =    1.000,"P-49-1",          1108,       161.760,       34.2094,            0.,NA,NA,"",   1.99723E+06,   1.86095E+06,   1.86095E+06
C:/temp/Job-49.odb,Step-1,Increment      1: Step Time =    1.000,"P-49-1",          1109,       173.166,       36.3540,            0.,NA,NA,"",   1.69344E+06,   1.58948E+06,   1.58948E+06
C:/temp/Job-49.odb,Step-1,Increment      1: Step Time =    1.000,"P-49-1",          1110,       32.0874,       162.651,            0.,NA,NA,"",   1.48324E+06,   1.39098E+06,   1.39098E+06
C:/temp/Job-49.odb,Step-1,Increment      1: Step Time =    1.000,"P-49-1",          1111,       131.444,       24.3474,            0.,NA,NA,"",   2.20335E+06,   2.31017E+06,   2.31017E+06
C:/temp/Job-49.odb,Step-1,Increment      1: Step Time =    1.000,"P-49-1",          1112,       171.762,       156.668,            0.,NA,NA,"",   1.93932E+06,   1.76207E+06,   1.76207E+06
C:/temp/Job-49.odb,Step-1,Increment      1: Step Time =    1.000,"P-49-1",          1113,       18.1167,       166.018,            0.,NA,NA,"",   1.49469E+06,   1.54848E+06,   1.54848E+06
C:/temp/Job-49.odb,Step-1,Increment      1: Step Time =    1.000,"P-49-1",          1114,       164.094,       19.2341,            0.,NA,NA,"",   1.38533E+06,   1.32759E+06,   1.32759E+06
C:/temp/Job-49.odb,Step-1,Increment      1: Step Time =    1.000,"P-49-1",          1115,       13.6383,       174.672,            0.,NA,NA,"",   1.93997E+06,   2.04119E+06,   2.04119E+06
C:/temp/Job-49.odb,Step-1,Increment      1: Step Time =    1.000,"P-49-1",          1116,       25.4951,       13.5784,            0.,NA,NA,"",   2.75505E+06,   2.75095E+06,   2.75095E+06
C:/temp/Job-49.odb,Step-1,Increment      1: Step Time =    1.000,"P-49-1",          1117,       16.1186,       27.9438,            0.,NA,NA,"",   1.82802E+06,   1.90206E+06,   1.90206E+06
C:/temp/Job-49.odb,Step-1,Increment      1: Step Time =    1.000,"P-49-1",          1118,       20.0479,       33.1396,            0.,NA,NA,"",   1.58122E+06,   1.61627E+06,   1.61627E+06
C:/temp/Job-49.odb,Step-1,Increment      1: Step Time =    1.000,"P-49-1",          1119,       33.9094,       17.2459,            0.,NA,NA,"",   2.56932E+06,   2.51923E+06,   2.51923E+06
C:/temp/Job-49.odb,Step-1,Increment      1: Step Time =    1.000,"P-49-1",          1120,       173.354,       185.331,            0.,NA,NA,"",   1.13204E+06,   1.10836E+06,   1.10836E+06
C:/temp/Job-49.odb,Step-1,Increment      1: Step Time =    1.000,"P-49-1",          1121,       163.873,       180.866,            0.,NA,NA,"",   1.37612E+06,   1.31933E+06,   1.31933E+06
C:/temp/Job-49.odb,Step-1,Increment      1: Step Time =    1.000,"P-49-1",          1122,       180.949,       166.350,            0.,NA,NA,"",   1.36831E+06,   1.34119E+06,   1.34119E+06
C:/temp/Job-49.odb,Step-1,Increment      1: Step Time =    1.000,"P-49-1",          1123,       26.1874,       184.551,            0.,NA,NA,"",   2.64987E+06,   2.64074E+06,   2.64074E+06
C:/temp/Job-49.odb,Step-1,Increment      1: Step Time =    1.000,"P-49-1",          1124,       185.540,       27.3378,            0.,NA,NA,"",   1.15396E+06,   1.15472E+06,   1.15472E+06
C:/temp/Job-49.odb,Step-1,Increment      1: Step Time =    1.000,"P-49-1",          1125,       183.237,       36.5406,            0.,NA,NA,"",   1.34038E+06,   1.33036E+06,   1.33036E+06
C:/temp/Job-49.odb,Step-1,Increment      1: Step Time =    1.000,"P-49-1",          1126,       35.2692,       180.526,            0.,NA,NA,"",   2.46461E+06,   2.39320E+06,   2.39320E+06
C:/temp/Job-49.odb,Step-1,Increment      1: Step Time =    1.000,"P-49-1",          1127,       66.1112,       43.6024,            0.,NA,NA,"",   1.30730E+06,   1.18117E+06,   1.18117E+06
C:/temp/Job-49.odb,Step-1,Increment      1: Step Time =    1.000,"P-49-1",          1128,       181.118,       45.0445,            0.,NA,NA,"",   1.59451E+06,   1.53584E+06,   1.53584E+06
C:/temp/Job-49.odb,Step-1,Increment      1: Step Time =    1.000,"P-49-1",          1129,       154.855,       181.089,            0.,NA,NA,"",   1.48872E+06,   1.42987E+06,   1.42987E+06
C:/temp/Job-49.odb,Step-1,Increment      1: Step Time =    1.000,"P-49-1",          1130,       49.2793,       19.6509,            0.,NA,NA,"",   2.55632E+06,   2.40909E+06,   2.40909E+06
C:/temp/Job-49.odb,Step-1,Increment      1: Step Time =    1.000,"P-49-1",          1131,       19.6299,       151.959,            0.,NA,NA,"",   719.648E+03,   742.402E+03,   742.402E+03
C:/temp/Job-49.odb,Step-1,Increment      1: Step Time =    1.000,"P-49-1",          1132,       127.841,       28.5247,            0.,NA,NA,"",   2.77448E+06,   2.93390E+06,   2.93390E+06
C:/temp/Job-49.odb,Step-1,Increment      1: Step Time =    1.000,"P-49-1",          1133,       163.812,       170.504,            0.,NA,NA,"",   1.76912E+06,   1.66749E+06,   1.66749E+06
C:/temp/Job-49.odb,Step-1,Increment      1: Step Time =    1.000,"P-49-1",          1134,       133.941,       36.6725,            0.,NA,NA,"",   3.21006E+06,   3.34039E+06,   3.34039E+06
C:/temp/Job-49.odb,Step-1,Increment      1: Step Time =    1.000,"P-49-1",          1135,       29.0284,       101.145,            0.,NA,NA,"",   505.694E+03,  -562.948E+03,  -562.948E+03
C:/temp/Job-49.odb,Step-1,Increment      1: Step Time =    1.000,"P-49-1",          1136,       44.2876,       184.943,            0.,NA,NA,"",   2.65881E+06,   2.58352E+06,   2.58352E+06
C:/temp/Job-49.odb,Step-1,Increment      1: Step Time =    1.000,"P-49-1",          1137,       154.828,       25.3975,            0.,NA,NA,"",   1.81263E+06,   1.73862E+06,   1.73862E+06
C:/temp/Job-49.odb,Step-1,Increment      1: Step Time =    1.000,"P-49-1",          1138,       47.1116,       26.5243,            0.,NA,NA,"",   2.30738E+06,   2.10516E+06,   2.10516E+06
C:/temp/Job-49.odb,Step-1,Increment      1: Step Time =    1.000,"P-49-1",          1139,       174.030,       148.774,            0.,NA,NA,"",   2.02239E+06,   1.78184E+06,   1.78184E+06
C:/temp/Job-49.odb,Step-1,Increment      1: Step Time =    1.000,"P-49-1",          1140,       170.893,       47.2656,            0.,NA,NA,"",   2.07287E+06,   1.83794E+06,   1.83794E+06
C:/temp/Job-49.odb,Step-1,Increment      1: Step Time =    1.000,"P-49-1",          1141,       25.1617,       36.8719,            0.,NA,NA,"",   1.41685E+06,   1.39376E+06,   1.39376E+06
C:/temp/Job-49.odb,Step-1,Increment      1: Step Time =    1.000,"P-49-1",          1142,       39.8019,       24.5587,            0.,NA,NA,"",   2.28358E+06,   2.16854E+06,   2.16854E+06
C:/temp/Job-49.odb,Step-1,Increment      1: Step Time =    1.000,"P-49-1",          1143,       164.374,       23.7975,            0.,NA,NA,"",   1.54620E+06,   1.47160E+06,   1.47160E+06
C:/temp/Job-49.odb,Step-1,Increment      1: Step Time =    1.000,"P-49-1",          1144,       25.9866,       166.056,            0.,NA,NA,"",   1.61400E+06,   1.59696E+06,   1.59696E+06
C:/temp/Job-49.odb,Step-1,Increment      1: Step Time =    1.000,"P-49-1",          1145,       35.6856,       176.957,            0.,NA,NA,"",   2.31000E+06,   2.22519E+06,   2.22519E+06
C:/temp/Job-49.odb,Step-1,Increment      1: Step Time =    1.000,"P-49-1",          1146,       163.857,       175.718,            0.,NA,NA,"",   1.57847E+06,   1.50171E+06,   1.50171E+06
C:/temp/Job-49.odb,Step-1,Increment      1: Step Time =    1.000,"P-49-1",          1147,       177.444,       167.774,            0.,NA,NA,"",   1.46226E+06,   1.40870E+06,   1.40870E+06
C:/temp/Job-49.odb,Step-1,Increment      1: Step Time =    1.000,"P-49-1",          1148,       19.8434,       48.4824,            0.,NA,NA,"",   691.156E+03,   709.980E+03,   709.980E+03
C:/temp/Job-49.odb,Step-1,Increment      1: Step Time =    1.000,"P-49-1",          1149,       153.588,       20.1426,            0.,NA,NA,"",   1.56864E+06,   1.50974E+06,   1.50974E+06
C:/temp/Job-49.odb,Step-1,Increment      1: Step Time =    1.000,"P-49-1",          1150,       173.700,       153.179,            0.,NA,NA,"",   1.96187E+06,   1.76307E+06,   1.76307E+06
C:/temp/Job-49.odb,Step-1,Increment      1: Step Time =    1.000,"P-49-1",          1151,       172.266,       42.4464,            0.,NA,NA,"",   1.90632E+06,   1.73993E+06,   1.73993E+06
C:/temp/Job-49.odb,Step-1,Increment      1: Step Time =    1.000,"P-49-1",          1152,       39.1082,       44.4684,            0.,NA,NA,"",   1.18475E+06,   980.649E+03,   980.649E+03
C:/temp/Job-49.odb,Step-1,Increment      1: Step Time =    1.000,"P-49-1",          1153,       32.5778,       38.9207,            0.,NA,NA,"",   1.41613E+06,   1.30840E+06,   1.30840E+06
C:/temp/Job-49.odb,Step-1,Increment      1: Step Time =    1.000,"P-49-1",          1154,       14.2541,       160.787,            0.,NA,NA,"",   1.13586E+06,   1.21061E+06,   1.21061E+06
C:/temp/Job-49.odb,Step-1,Increment      1: Step Time =    1.000,"P-49-1",          1155,       158.852,       14.9710,            0.,NA,NA,"",   1.26193E+06,   1.21228E+06,   1.21228E+06
C:/temp/Job-49.odb,Step-1,Increment      1: Step Time =    1.000,"P-49-1",          1156,       17.5552,       170.250,            0.,NA,NA,"",   1.73611E+06,   1.79958E+06,   1.79958E+06
C:/temp/Job-49.odb,Step-1,Increment      1: Step Time =    1.000,"P-49-1",          1157,       173.585,       19.2833,            0.,NA,NA,"",   1.24381E+06,   1.20963E+06,   1.20963E+06
C:/temp/Job-49.odb,Step-1,Increment      1: Step Time =    1.000,"P-49-1",          1158,       174.478,       9.97701,            0.,NA,NA,"",   1.01492E+06,   1.00187E+06,   1.00187E+06
C:/temp/Job-49.odb,Step-1,Increment      1: Step Time =    1.000,"P-49-1",          1159,       39.1557,       14.0136,            0.,NA,NA,"",   2.70386E+06,   2.65087E+06,   2.65087E+06
C:/temp/Job-49.odb,Step-1,Increment      1: Step Time =    1.000,"P-49-1",          1160,       15.4996,       42.3039,            0.,NA,NA,"",   978.130E+03,   1.03910E+06,   1.03910E+06
C:/temp/Job-49.odb,Step-1,Increment      1: Step Time =    1.000,"P-49-1",          1161,       21.7603,       25.8407,            0.,NA,NA,"",   2.01546E+06,   2.04002E+06,   2.04002E+06
C:/temp/Job-49.odb,Step-1,Increment      1: Step Time =    1.000,"P-49-1",          1162,       26.2634,       17.5584,            0.,NA,NA,"",   2.54276E+06,   2.53268E+06,   2.53268E+06
C:/temp/Job-49.odb,Step-1,Increment      1: Step Time =    1.000,"P-49-1",          1163,       11.1778,       26.4077,            0.,NA,NA,"",   1.82233E+06,   1.94527E+06,   1.94527E+06
C:/temp/Job-49.odb,Step-1,Increment      1: Step Time =    1.000,"P-49-1",          1164,       182.088,       174.518,            0.,NA,NA,"",   1.19868E+06,   1.18861E+06,   1.18861E+06
C:/temp/Job-49.odb,Step-1,Increment      1: Step Time =    1.000,"P-49-1",          1165,       175.698,       180.071,            0.,NA,NA,"",   1.22141E+06,   1.19422E+06,   1.19422E+06
C:/temp/Job-49.odb,Step-1,Increment      1: Step Time =    1.000,"P-49-1",          1166,       159.511,       185.717,            0.,NA,NA,"",   1.21377E+06,   1.16776E+06,   1.16776E+06
C:/temp/Job-49.odb,Step-1,Increment      1: Step Time =    1.000,"P-49-1",          1167,       182.980,       160.322,            0.,NA,NA,"",   1.41407E+06,   1.39237E+06,   1.39237E+06
C:/temp/Job-49.odb,Step-1,Increment      1: Step Time =    1.000,"P-49-1",          1168,       190.398,       174.828,            0.,NA,NA,"",   1.06647E+06,   1.06813E+06,   1.06813E+06
C:/temp/Job-49.odb,Step-1,Increment      1: Step Time =    1.000,"P-49-1",          1169,       186.359,       40.6635,            0.,NA,NA,"",   1.29221E+06,   1.31242E+06,   1.31242E+06
C:/temp/Job-49.odb,Step-1,Increment      1: Step Time =    1.000,"P-49-1",          1170,       39.0695,       180.107,            0.,NA,NA,"",   2.48302E+06,   2.39295E+06,   2.39295E+06
C:/temp/Job-49.odb,Step-1,Increment      1: Step Time =    1.000,"P-49-1",          1171,       27.5907,       179.880,            0.,NA,NA,"",   2.38074E+06,   2.35943E+06,   2.35943E+06
C:/temp/Job-49.odb,Step-1,Increment      1: Step Time =    1.000,"P-49-1",          1172,       179.629,       26.7769,            0.,NA,NA,"",   1.26515E+06,   1.24458E+06,   1.24458E+06
C:/temp/Job-49.odb,Step-1,Increment      1: Step Time =    1.000,"P-49-1",          1173,       25.5365,       189.581,            0.,NA,NA,"",   2.92166E+06,   2.91667E+06,   2.91667E+06
C:/temp/Job-49.odb,Step-1,Increment      1: Step Time =    1.000,"P-49-1",          1174,       43.1549,       27.0255,            0.,NA,NA,"",   2.23075E+06,   2.06507E+06,   2.06507E+06
C:/temp/Job-49.odb,Step-1,Increment      1: Step Time =    1.000,"P-49-1",          1175,       176.607,       43.7534,            0.,NA,NA,"",   1.76729E+06,   1.64359E+06,   1.64359E+06
C:/temp/Job-49.odb,Step-1,Increment      1: Step Time =    1.000,"P-49-1",          1176,       28.6216,       165.021,            0.,NA,NA,"",   1.57410E+06,   1.52670E+06,   1.52670E+06
C:/temp/Job-49.odb,Step-1,Increment      1: Step Time =    1.000,"P-49-1",          1177,       48.5785,       23.6230,            0.,NA,NA,"",   2.42332E+06,   2.24031E+06,   2.24031E+06
C:/temp/Job-49.odb,Step-1,Increment      1: Step Time =    1.000,"P-49-1",          1178,       165.069,       28.4282,            0.,NA,NA,"",   1.69631E+06,   1.60090E+06,   1.60090E+06
C:/temp/Job-49.odb,Step-1,Increment      1: Step Time =    1.000,"P-49-1",          1179,       168.676,       176.055,            0.,NA,NA,"",   1.46326E+06,   1.39994E+06,   1.39994E+06
C:/temp/Job-49.odb,Step-1,Increment      1: Step Time =    1.000,"P-49-1",          1180,       47.4008,       186.328,            0.,NA,NA,"",   2.69845E+06,   2.61874E+06,   2.61874E+06
C:/temp/Job-49.odb,Step-1,Increment      1: Step Time =    1.000,"P-49-1",          1181,       28.5701,       34.9600,            0.,NA,NA,"",   1.57843E+06,   1.52048E+06,   1.52048E+06
C:/temp/Job-49.odb,Step-1,Increment      1: Step Time =    1.000,"P-49-1",          1182,       33.8903,       44.6896,            0.,NA,NA,"",   1.06679E+06,   930.154E+03,   930.154E+03
C:/temp/Job-49.odb,Step-1,Increment      1: Step Time =    1.000,"P-49-1",          1183,       32.2696,       26.2756,            0.,NA,NA,"",   2.11037E+06,   2.03923E+06,   2.03923E+06
C:/temp/Job-49.odb,Step-1,Increment      1: Step Time =    1.000,"P-49-1",          1184,       26.7312,       30.0906,            0.,NA,NA,"",   1.83670E+06,   1.80799E+06,   1.80799E+06
C:/temp/Job-49.odb,Step-1,Increment      1: Step Time =    1.000,"P-49-1",          1185,       169.010,       27.5018,            0.,NA,NA,"",   1.56261E+06,   1.48393E+06,   1.48393E+06
C:/temp/Job-49.odb,Step-1,Increment      1: Step Time =    1.000,"P-49-1",          1186,       177.040,       31.3702,            0.,NA,NA,"",   1.43969E+06,   1.39088E+06,   1.39088E+06
C:/temp/Job-49.odb,Step-1,Increment      1: Step Time =    1.000,"P-49-1",          1187,       32.7977,       174.670,            0.,NA,NA,"",   2.17089E+06,   2.10135E+06,   2.10135E+06
C:/temp/Job-49.odb,Step-1,Increment      1: Step Time =    1.000,"P-49-1",          1188,       172.545,       167.310,            0.,NA,NA,"",   1.63449E+06,   1.54302E+06,   1.54302E+06
C:/temp/Job-49.odb,Step-1,Increment      1: Step Time =    1.000,"P-49-1",          1189,       35.1721,       33.8164,            0.,NA,NA,"",   1.75174E+06,   1.63123E+06,   1.63123E+06
C:/temp/Job-49.odb,Step-1,Increment      1: Step Time =    1.000,"P-49-1",          1190,       17.6080,       174.340,            0.,NA,NA,"",   1.98338E+06,   2.04720E+06,   2.04720E+06
C:/temp/Job-49.odb,Step-1,Increment      1: Step Time =    1.000,"P-49-1",          1191,       17.9256,       23.6141,            0.,NA,NA,"",   2.10277E+06,   2.16058E+06,   2.16058E+06
C:/temp/Job-49.odb,Step-1,Increment      1: Step Time =    1.000,"P-49-1",          1192,       20.7648,       14.1564,            0.,NA,NA,"",   2.73965E+06,   2.75600E+06,   2.75600E+06
C:/temp/Job-49.odb,Step-1,Increment      1: Step Time =    1.000,"P-49-1",          1193,       178.934,       183.855,            0.,NA,NA,"",   1.11134E+06,   1.09660E+06,   1.09660E+06
C:/temp/Job-49.odb,Step-1,Increment      1: Step Time =    1.000,"P-49-1",          1194,       183.496,       22.0305,            0.,NA,NA,"",   1.13351E+06,   1.12554E+06,   1.12554E+06
C:/temp/Job-49.odb,Step-1,Increment      1: Step Time =    1.000,"P-49-1",          1195,       20.7872,       183.322,            0.,NA,NA,"",   2.56741E+06,   2.58994E+06,   2.58994E+06
C:/temp/Job-49.odb,Step-1,Increment      1: Step Time =    1.000,"P-49-1",          1196,       172.526,       174.619,            0.,NA,NA,"",   1.42869E+06,   1.37348E+06,   1.37348E+06
C:/temp/Job-49.odb,Step-1,Increment      1: Step Time =    1.000,"P-49-1",          1197,       153.299,       14.3804,            0.,NA,NA,"",   1.25258E+06,   1.20555E+06,   1.20555E+06
C:/temp/Job-49.odb,Step-1,Increment      1: Step Time =    1.000,"P-49-1",          1198,       175.544,       174.078,            0.,NA,NA,"",   1.35814E+06,   1.31656E+06,   1.31656E+06
C:/temp/Job-49.odb,Step-1,Increment      1: Step Time =    1.000,"P-49-1",          1199,       184.453,       153.724,            0.,NA,NA,"",   1.47605E+06,   1.46884E+06,   1.46884E+06
C:/temp/Job-49.odb,Step-1,Increment      1: Step Time =    1.000,"P-49-1",          1200,       27.1632,       41.0622,            0.,NA,NA,"",   1.18994E+06,   1.14200E+06,   1.14200E+06
C:/temp/Job-49.odb,Step-1,Increment      1: Step Time =    1.000,"P-49-1",          1201,       175.330,       171.575,            0.,NA,NA,"",   1.41526E+06,   1.36525E+06,   1.36525E+06
C:/temp/Job-49.odb,Step-1,Increment      1: Step Time =    1.000,"P-49-1",          1202,       14.1994,       179.478,            0.,NA,NA,"",   2.25027E+06,   2.34400E+06,   2.34400E+06
C:/temp/Job-49.odb,Step-1,Increment      1: Step Time =    1.000,"P-49-1",          1203,       34.4572,       49.8938,            0.,NA,NA,"",   769.388E+03,   605.416E+03,   605.416E+03
C:/temp/Job-49.odb,Step-1,Increment      1: Step Time =    1.000,"P-49-1",          1204,       16.4405,       18.0865,            0.,NA,NA,"",   2.45974E+06,   2.52264E+06,   2.52264E+06
C:/temp/Job-49.odb,Step-1,Increment      1: Step Time =    1.000,"P-49-1",          1205,       179.156,       15.2443,            0.,NA,NA,"",   1.09256E+06,   1.07913E+06,   1.07913E+06
C:/temp/Job-49.odb,Step-1,Increment      1: Step Time =    1.000,"P-49-1",          1206,       15.0218,       184.322,            0.,NA,NA,"",   2.60822E+06,   2.67756E+06,   2.67756E+06
C:/temp/Job-49.odb,Step-1,Increment      1: Step Time =    1.000,"P-49-1",          1207,       185.545,       179.637,            0.,NA,NA,"",   1.09159E+06,   1.08658E+06,   1.08658E+06
C:/temp/Job-49.odb,Step-1,Increment      1: Step Time =    1.000,"P-49-1",          1208,       29.2365,       21.1072,            0.,NA,NA,"",   2.37370E+06,   2.33944E+06,   2.33944E+06
C:/temp/Job-49.odb,Step-1,Increment      1: Step Time =    1.000,"P-49-1",          1209,       23.7691,       29.9047,            0.,NA,NA,"",   1.82549E+06,   1.83161E+06,   1.83161E+06
C:/temp/Job-49.odb,Step-1,Increment      1: Step Time =    1.000,"P-49-1",          1210,       21.4576,       174.000,            0.,NA,NA,"",   2.02813E+06,   2.05648E+06,   2.05648E+06
C:/temp/Job-49.odb,Step-1,Increment      1: Step Time =    1.000,"P-49-1",          1211,       172.004,       26.6216,            0.,NA,NA,"",   1.46750E+06,   1.40479E+06,   1.40479E+06
C:/temp/Job-49.odb,Step-1,Increment      1: Step Time =    1.000,"P-49-1",          1212,       174.118,       28.7238,            0.,NA,NA,"",   1.46578E+06,   1.40674E+06,   1.40674E+06
C:/temp/Job-49.odb,Step-1,Increment      1: Step Time =    1.000,"P-49-1",          1213,       28.6827,       175.988,            0.,NA,NA,"",   2.18102E+06,   2.14773E+06,   2.14773E+06
C:/temp/Job-49.odb,Step-1,Increment      1: Step Time =    1.000,"P-49-1",          1214,       29.2270,       45.3324,            0.,NA,NA,"",   959.755E+03,   884.022E+03,   884.022E+03
C:/temp/Job-49.odb,Step-1,Increment      1: Step Time =    1.000,"P-49-1",          1215,       38.2734,       29.1839,            0.,NA,NA,"",   2.04434E+06,   1.91496E+06,   1.91496E+06
C:/temp/Job-49.odb,Step-1,Increment      1: Step Time =    1.000,"P-49-1",          1216,       15.0275,       47.2101,            0.,NA,NA,"",   723.825E+03,   775.509E+03,   775.509E+03
C:/temp/Job-49.odb,Step-1,Increment      1: Step Time =    1.000,"P-49-1",          1217,       178.800,       149.246,            0.,NA,NA,"",   1.84225E+06,   1.69643E+06,   1.69643E+06
C:/temp/Job-49.odb,Step-1,Increment      1: Step Time =    1.000,"P-49-1",          1218,       18.3745,       178.642,            0.,NA,NA,"",   2.25927E+06,   2.30996E+06,   2.30996E+06
C:/temp/Job-49.odb,Step-1,Increment      1: Step Time =    1.000,"P-49-1",          1219,       178.299,       20.2469,            0.,NA,NA,"",   1.18674E+06,   1.16632E+06,   1.16632E+06
C:/temp/Job-49.odb,Step-1,Increment      1: Step Time =    1.000,"P-49-1",          1220,       181.233,       178.913,            0.,NA,NA,"",   1.15508E+06,   1.14292E+06,   1.14292E+06
C:/temp/Job-49.odb,Step-1,Increment      1: Step Time =    1.000,"P-49-1",          1221,       11.0122,       15.0781,            0.,NA,NA,"",   2.59107E+06,   2.70944E+06,   2.70944E+06
C:/temp/Job-49.odb,Step-1,Increment      1: Step Time =    1.000,"P-49-1",          1222,       184.526,       10.3380,            0.,NA,NA,"",   1.00650E+06,   1.00101E+06,   1.00101E+06
C:/temp/Job-49.odb,Step-1,Increment      1: Step Time =    1.000,"P-49-1",          1223,       15.2424,       189.461,            0.,NA,NA,"",   2.95716E+06,   2.99339E+06,   2.99339E+06
C:/temp/Job-49.odb,Step-1,Increment      1: Step Time =    1.000,"P-49-1",          1224,       190.007,       184.817,            0.,NA,NA,"",   1.02920E+06,   1.02058E+06,   1.02058E+06
C:/temp/Job-49.odb,Step-1,Increment      1: Step Time =    1.000,"P-49-1",          1225,       26.9683,       26.7006,            0.,NA,NA,"",   2.01813E+06,   1.99060E+06,   1.99060E+06
C:/temp/Job-49.odb,Step-1,Increment      1: Step Time =    1.000,"P-49-1",          1226,       25.9110,       173.899,            0.,NA,NA,"",   2.05563E+06,   2.04231E+06,   2.04231E+06
C:/temp/Job-49.odb,Step-1,Increment      1: Step Time =    1.000,"P-49-1",          1227,       187.335,       152.036,            0.,NA,NA,"",   1.35729E+06,   1.40531E+06,   1.40531E+06
C:/temp/Job-49.odb,Step-1,Increment      1: Step Time =    1.000,"P-49-1",          1228,       159.157,       175.854,            0.,NA,NA,"",   1.66307E+06,   1.58404E+06,   1.58404E+06
C:/temp/Job-49.odb,Step-1,Increment      1: Step Time =    1.000,"P-49-1",          1229,       33.1775,       55.0561,            0.,NA,NA,"",   526.993E+03,   216.457E+03,   216.457E+03
C:/temp/Job-49.odb,Step-1,Increment      1: Step Time =    1.000,"P-49-1",          1230,       152.352,       168.826,            0.,NA,NA,"",   2.14784E+06,   2.06757E+06,   2.06757E+06
C:/temp/Job-49.odb,Step-1,Increment      1: Step Time =    1.000,"P-49-1",          1231,       184.824,       184.556,            0.,NA,NA,"",   1.05393E+06,   1.04694E+06,   1.04694E+06
C:/temp/Job-49.odb,Step-1,Increment      1: Step Time =    1.000,"P-49-1",          1232,       184.143,       15.7839,            0.,NA,NA,"",   1.06034E+06,   1.05279E+06,   1.05279E+06
C:/temp/Job-49.odb,Step-1,Increment      1: Step Time =    1.000,"P-49-1",          1233,       15.8897,       14.2711,            0.,NA,NA,"",   2.70863E+06,   2.75856E+06,   2.75856E+06
C:/temp/Job-49.odb,Step-1,Increment      1: Step Time =    1.000,"P-49-1",          1234,       189.350,       15.6827,            0.,NA,NA,"",   1.03538E+06,   1.02740E+06,   1.02740E+06
C:/temp/Job-49.odb,Step-1,Increment      1: Step Time =    1.000,"P-49-1",          1235,       184.694,       189.581,            0.,NA,NA,"",   1.00857E+06,   1.00300E+06,   1.00300E+06
C:/temp/Job-49.odb,Step-1,Increment      1: Step Time =    1.000,"P-49-1",          1236,       15.4564,       9.66271,            0.,NA,NA,"",   3.00982E+06,   3.03756E+06,   3.03756E+06
C:/temp/Job-49.odb,Step-1,Increment      1: Step Time =    1.000,"P-49-1",          1237,       9.90044,       184.728,            0.,NA,NA,"",   2.54429E+06,   2.68193E+06,   2.68193E+06
C:/temp/Job-49.odb,Step-1,Increment      1: Step Time =    1.000,"P-49-1",          1238,       36.5559,       61.8465,            0.,NA,NA,"",   524.681E+03,  -505.911E+03,  -505.911E+03
C:/temp/Job-49.odb,Step-1,Increment      1: Step Time =    1.000,"P-49-1",          1239,       41.9755,       33.1865,            0.,NA,NA,"",   1.90833E+06,   1.71818E+06,   1.71818E+06
C:/temp/Job-49.odb,Step-1,Increment      1: Step Time =    1.000,"P-49-1",          1240,       25.1996,       9.17147,            0.,NA,NA,"",   2.98689E+06,   2.98369E+06,   2.98369E+06
C:/temp/Job-49.odb,Step-1,Increment      1: Step Time =    1.000,"P-49-1",          1241,       9.27119,       174.879,            0.,NA,NA,"",   1.87218E+06,   2.01785E+06,   2.01785E+06
C:/temp/Job-49.odb,Step-1,Increment      1: Step Time =    1.000,"P-49-1",          1242,       190.053,       26.1927,            0.,NA,NA,"",   1.07319E+06,   1.07765E+06,   1.07765E+06
C:/temp/Job-49.odb,Step-1,Increment      1: Step Time =    1.000,"P-49-1",          1243,       174.179,       189.961,            0.,NA,NA,"",   1.01609E+06,   1.00295E+06,   1.00295E+06
C:/temp/Job-49.odb,Step-1,Increment      1: Step Time =    1.000,"P-49-1",          1244,       20.7289,       76.2767,            0.,NA,NA,"",   292.676E+03,  -322.997E+03,  -322.997E+03
C:/temp/Job-49.odb,Step-1,Increment      1: Step Time =    1.000,"P-49-1",          1245,       21.5273,       89.6911,            0.,NA,NA,"",   341.158E+03,  -392.113E+03,  -392.113E+03
C:/temp/Job-49.odb,Step-1,Increment      1: Step Time =    1.000,"P-49-1",          1246,       159.667,       24.4870,            0.,NA,NA,"",   1.67144E+06,   1.58969E+06,   1.58969E+06
C:/temp/Job-49.odb,Step-1,Increment      1: Step Time =    1.000,"P-49-1",          1247,       29.6369,       49.1272,            0.,NA,NA,"",   748.191E+03,   658.147E+03,   658.147E+03
C:/temp/Job-49.odb,Step-1,Increment      1: Step Time =    1.000,"P-49-1",          1248,       165.048,       60.6639,            0.,NA,NA,"",   2.09619E+06,   1.63288E+06,   1.63288E+06
C:/temp/Job-49.odb,Step-1,Increment      1: Step Time =    1.000,"P-49-1",          1249,       190.660,       54.9210,            0.,NA,NA,"",   1.33666E+06,   1.45955E+06,   1.45955E+06
C:/temp/Job-49.odb,Step-1,Increment      1: Step Time =    1.000,"P-49-1",          1250,       54.8568,       9.83173,            0.,NA,NA,"",   2.71493E+06,   2.65337E+06,   2.65337E+06
C:/temp/Job-49.odb,Step-1,Increment      1: Step Time =    1.000,"P-49-1",          1251,       145.089,       190.350,            0.,NA,NA,"",   913.341E+03,   880.064E+03,   880.064E+03
C:/temp/Job-49.odb,Step-1,Increment      1: Step Time =    1.000,"P-49-1",          1252,       9.72462,       146.021,            0.,NA,NA,"",   415.951E+03,   464.104E+03,   464.104E+03
C:/temp/Job-49.odb,Step-1,Increment      1: Step Time =    1.000,"P-49-1",          1253,       17.1322,       77.7905,            0.,NA,NA,"",   257.861E+03,  -287.100E+03,  -287.100E+03
C:/temp/Job-49.odb,Step-1,Increment      1: Step Time =    1.000,"P-49-1",          1254,       5.13537,       5.04769,            0.,NA,NA,"",   3.38477E+06,   3.51875E+06,   3.51875E+06
C:/temp/Job-49.odb,Step-1,Increment      1: Step Time =    1.000,"P-49-1",          1255,       53.8675,       53.5454,            0.,NA,NA,"",   848.870E+03,  -755.419E+03,  -755.419E+03
C:/temp/Job-49.odb,Step-1,Increment      1: Step Time =    1.000,"P-49-1",          1256,       191.248,       148.961,            0.,NA,NA,"",   1.21754E+06,   1.33829E+06,   1.33829E+06
C:/temp/Job-49.odb,Step-1,Increment      1: Step Time =    1.000,"P-49-1",          1257,       50.7171,       191.030,            0.,NA,NA,"",   2.80063E+06,   2.75314E+06,   2.75314E+06
C:/temp/Job-49.odb,Step-1,Increment      1: Step Time =    1.000,"P-49-1",          1258,       108.570,       30.9304,            0.,NA,NA,"",   4.15272E+06,   4.34288E+06,   4.34288E+06
C:/temp/Job-49.odb,Step-1,Increment      1: Step Time =    1.000,"P-49-1",          1259,       128.287,       33.4326,            0.,NA,NA,"",   3.34491E+06,   3.51517E+06,   3.51517E+06
C:/temp/Job-49.odb,Step-1,Increment      1: Step Time =    1.000,"P-49-1",          1260,       39.1963,       184.306,            0.,NA,NA,"",   2.64151E+06,   2.57638E+06,   2.57638E+06
C:/temp/Job-49.odb,Step-1,Increment      1: Step Time =    1.000,"P-49-1",          1261,       135.530,       39.8729,            0.,NA,NA,"",   3.35989E+06,   3.47886E+06,   3.47886E+06
C:/temp/Job-49.odb,Step-1,Increment      1: Step Time =    1.000,"P-49-1",          1262,       132.925,       32.3397,            0.,NA,NA,"",   2.90543E+06,   3.03524E+06,   3.03524E+06
C:/temp/Job-49.odb,Step-1,Increment      1: Step Time =    1.000,"P-49-1",          1263,       186.031,       174.760,            0.,NA,NA,"",   1.12487E+06,   1.12518E+06,   1.12518E+06
C:/temp/Job-49.odb,Step-1,Increment      1: Step Time =    1.000,"P-49-1",          1264,       185.868,       169.962,            0.,NA,NA,"",   1.16895E+06,   1.17529E+06,   1.17529E+06
C:/temp/Job-49.odb,Step-1,Increment      1: Step Time =    1.000,"P-49-1",          1265,       174.130,       14.7551,            0.,NA,NA,"",   1.12707E+06,   1.10440E+06,   1.10440E+06
C:/temp/Job-49.odb,Step-1,Increment      1: Step Time =    1.000,"P-49-1",          1266,       169.105,       14.5608,            0.,NA,NA,"",   1.16442E+06,   1.13082E+06,   1.13082E+06
C:/temp/Job-49.odb,Step-1,Increment      1: Step Time =    1.000,"P-49-1",          1267,       86.1300,       25.4219,            0.,NA,NA,"",   3.06479E+06,   3.03199E+06,   3.03199E+06
C:/temp/Job-49.odb,Step-1,Increment      1: Step Time =    1.000,"P-49-1",          1268,       42.1492,       183.198,            0.,NA,NA,"",   2.60801E+06,   2.53255E+06,   2.53255E+06
C:/temp/Job-49.odb,Step-1,Increment      1: Step Time =    1.000,"P-49-1",          1269,       35.8932,       66.7783,            0.,NA,NA,"",   598.365E+03,  -616.942E+03,  -616.942E+03
C:/temp/Job-49.odb,Step-1,Increment      1: Step Time =    1.000,"P-49-1",          1270,       49.7348,       156.052,            0.,NA,NA,"",   1.34974E+06,   1.01540E+06,   1.01540E+06
C:/temp/Job-49.odb,Step-1,Increment      1: Step Time =    1.000,"P-49-1",          1271,       48.0869,       151.995,            0.,NA,NA,"",   1.05489E+06,   439.499E+03,   439.499E+03
C:/temp/Job-49.odb,Step-1,Increment      1: Step Time =    1.000,"P-49-1",          1272,       114.590,       28.1056,            0.,NA,NA,"",   3.34836E+06,   3.55725E+06,   3.55725E+06
C:/temp/Job-49.odb,Step-1,Increment      1: Step Time =    1.000,"P-49-1",          1273,       42.8635,       179.976,            0.,NA,NA,"",   2.50685E+06,   2.40073E+06,   2.40073E+06
C:/temp/Job-49.odb,Step-1,Increment      1: Step Time =    1.000,"P-49-1",          1274,       178.954,       162.526,            0.,NA,NA,"",   1.52668E+06,   1.46557E+06,   1.46557E+06
C:/temp/Job-49.odb,Step-1,Increment      1: Step Time =    1.000,"P-49-1",          1275,       175.768,       159.080,            0.,NA,NA,"",   1.73028E+06,   1.61433E+06,   1.61433E+06
C:/temp/Job-49.odb,Step-1,Increment      1: Step Time =    1.000,"P-49-1",          1276,       99.2613,       19.6526,            0.,NA,NA,"",   2.44121E+06,   2.50608E+06,   2.50608E+06
C:/temp/Job-49.odb,Step-1,Increment      1: Step Time =    1.000,"P-49-1",          1277,       75.5636,       23.9917,            0.,NA,NA,"",   2.87376E+06,   2.69374E+06,   2.69374E+06
C:/temp/Job-49.odb,Step-1,Increment      1: Step Time =    1.000,"P-49-1",          1278,       71.2745,       25.5795,            0.,NA,NA,"",   2.81062E+06,   2.59352E+06,   2.59352E+06
C:/temp/Job-49.odb,Step-1,Increment      1: Step Time =    1.000,"P-49-1",          1279,       102.401,       17.4690,            0.,NA,NA,"",   2.12873E+06,   2.20180E+06,   2.20180E+06
C:/temp/Job-49.odb,Step-1,Increment      1: Step Time =    1.000,"P-49-1",          1280,       21.3586,       177.152,            0.,NA,NA,"",   2.21762E+06,   2.24255E+06,   2.24255E+06
C:/temp/Job-49.odb,Step-1,Increment      1: Step Time =    1.000,"P-49-1",          1281,       45.2151,       153.306,            0.,NA,NA,"",   1.11820E+06,   792.596E+03,   792.596E+03
C:/temp/Job-49.odb,Step-1,Increment      1: Step Time =    1.000,"P-49-1",          1282,       168.220,       69.9579,            0.,NA,NA,"",   1.90625E+06,   736.740E+03,   736.740E+03
C:/temp/Job-49.odb,Step-1,Increment      1: Step Time =    1.000,"P-49-1",          1283,       168.969,       73.9355,            0.,NA,NA,"",   1.77741E+06,   54.5677E+03,   54.5677E+03
C:/temp/Job-49.odb,Step-1,Increment      1: Step Time =    1.000,"P-49-1",          1284,       21.1013,       102.765,            0.,NA,NA,"",   331.125E+03,  -373.201E+03,  -373.201E+03
C:/temp/Job-49.odb,Step-1,Increment      1: Step Time =    1.000,"P-49-1",          1285,       170.854,       77.5607,            0.,NA,NA,"",   1.63584E+06,   21.1427E+03,   21.1427E+03
C:/temp/Job-49.odb,Step-1,Increment      1: Step Time =    1.000,"P-49-1",          1286,       165.046,       134.779,            0.,NA,NA,"",   1.97391E+06,   1.40909E+06,   1.40909E+06
C:/temp/Job-49.odb,Step-1,Increment      1: Step Time =    1.000,"P-49-1",          1287,       154.987,       50.7272,            0.,NA,NA,"",   2.34080E+06,   2.12890E+06,   2.12890E+06
C:/temp/Job-49.odb,Step-1,Increment      1: Step Time =    1.000,"P-49-1",          1288,       182.720,       144.183,            0.,NA,NA,"",   1.74960E+06,   1.68344E+06,   1.68344E+06
C:/temp/Job-49.odb,Step-1,Increment      1: Step Time =    1.000,"P-49-1",          1289,       119.286,       25.7782,            0.,NA,NA,"",   2.77635E+06,   2.96626E+06,   2.96626E+06
C:/temp/Job-49.odb,Step-1,Increment      1: Step Time =    1.000,"P-49-1",          1290,       182.006,       28.9481,            0.,NA,NA,"",   1.24171E+06,   1.23057E+06,   1.23057E+06
C:/temp/Job-49.odb,Step-1,Increment      1: Step Time =    1.000,"P-49-1",          1291,       172.756,       23.4368,            0.,NA,NA,"",   1.36599E+06,   1.31756E+06,   1.31756E+06
C:/temp/Job-49.odb,Step-1,Increment      1: Step Time =    1.000,"P-49-1",          1292,       182.642,       54.6607,            0.,NA,NA,"",   1.73618E+06,   1.67079E+06,   1.67079E+06
C:/temp/Job-49.odb,Step-1,Increment      1: Step Time =    1.000,"P-49-1",          1293,       13.6221,       119.252,            0.,NA,NA,"",   257.125E+03,  -288.166E+03,  -288.166E+03
C:/temp/Job-49.odb,Step-1,Increment      1: Step Time =    1.000,"P-49-1",          1294,       172.080,       181.282,            0.,NA,NA,"",   1.24926E+06,   1.21393E+06,   1.21393E+06
C:/temp/Job-49.odb,Step-1,Increment      1: Step Time =    1.000,"P-49-1",          1295,       178.651,       174.187,            0.,NA,NA,"",   1.27856E+06,   1.25287E+06,   1.25287E+06
C:/temp/Job-49.odb,Step-1,Increment      1: Step Time =    1.000,"P-49-1",          1296,       175.609,       164.862,            0.,NA,NA,"",   1.59191E+06,   1.50944E+06,   1.50944E+06
C:/temp/Job-49.odb,Step-1,Increment      1: Step Time =    1.000,"P-49-1",          1297,       172.815,       162.168,            0.,NA,NA,"",   1.75482E+06,   1.63397E+06,   1.63397E+06
C:/temp/Job-49.odb,Step-1,Increment      1: Step Time =    1.000,"P-49-1",          1298,       145.466,       181.054,            0.,NA,NA,"",   1.57666E+06,   1.54456E+06,   1.54456E+06
C:/temp/Job-49.odb,Step-1,Increment      1: Step Time =    1.000,"P-49-1",          1299,       46.3709,       181.123,            0.,NA,NA,"",   2.55406E+06,   2.43279E+06,   2.43279E+06
C:/temp/Job-49.odb,Step-1,Increment      1: Step Time =    1.000,"P-49-1",          1300,       20.3236,       29.3273,            0.,NA,NA,"",   1.81535E+06,   1.85207E+06,   1.85207E+06
C:/temp/Job-49.odb,Step-1,Increment      1: Step Time =    1.000,"P-49-1",          1301,       20.5334,       37.6667,            0.,NA,NA,"",   1.30248E+06,   1.32851E+06,   1.32851E+06
C:/temp/Job-49.odb,Step-1,Increment      1: Step Time =    1.000,"P-49-1",          1302,       168.840,       139.279,            0.,NA,NA,"",   2.16913E+06,   1.70775E+06,   1.70775E+06
C:/temp/Job-49.odb,Step-1,Increment      1: Step Time =    1.000,"P-49-1",          1303,       39.2938,       156.943,            0.,NA,NA,"",   1.26246E+06,   1.05865E+06,   1.05865E+06
C:/temp/Job-49.odb,Step-1,Increment      1: Step Time =    1.000,"P-49-1",          1304,       42.0588,       168.126,            0.,NA,NA,"",   1.96846E+06,   1.78289E+06,   1.78289E+06
C:/temp/Job-49.odb,Step-1,Increment      1: Step Time =    1.000,"P-49-1",          1305,       57.1348,       178.202,            0.,NA,NA,"",   2.60563E+06,   2.39962E+06,   2.39962E+06
C:/temp/Job-49.odb,Step-1,Increment      1: Step Time =    1.000,"P-49-1",          1306,       66.5300,       22.8950,            0.,NA,NA,"",   2.75473E+06,   2.52510E+06,   2.52510E+06
C:/temp/Job-49.odb,Step-1,Increment      1: Step Time =    1.000,"P-49-1",          1307,       21.6876,       108.162,            0.,NA,NA,"",   345.275E+03,  -396.548E+03,  -396.548E+03
C:/temp/Job-49.odb,Step-1,Increment      1: Step Time =    1.000,"P-49-1",          1308,       177.412,       55.6380,            0.,NA,NA,"",   1.97688E+06,   1.75949E+06,   1.75949E+06
C:/temp/Job-49.odb,Step-1,Increment      1: Step Time =    1.000,"P-49-1",          1309,       63.0580,       26.0852,            0.,NA,NA,"",   2.66592E+06,   2.40234E+06,   2.40234E+06
C:/temp/Job-49.odb,Step-1,Increment      1: Step Time =    1.000,"P-49-1",          1310,       62.8064,       22.8714,            0.,NA,NA,"",   2.69438E+06,   2.45789E+06,   2.45789E+06
C:/temp/Job-49.odb,Step-1,Increment      1: Step Time =    1.000,"P-49-1",          1311,       43.3752,       171.893,            0.,NA,NA,"",   2.18101E+06,   2.00573E+06,   2.00573E+06
C:/temp/Job-49.odb,Step-1,Increment      1: Step Time =    1.000,"P-49-1",          1312,       123.988,       18.5936,            0.,NA,NA,"",   1.70518E+06,   1.81369E+06,   1.81369E+06
C:/temp/Job-49.odb,Step-1,Increment      1: Step Time =    1.000,"P-49-1",          1313,       119.400,       17.4010,            0.,NA,NA,"",   1.62940E+06,   1.74278E+06,   1.74278E+06
C:/temp/Job-49.odb,Step-1,Increment      1: Step Time =    1.000,"P-49-1",          1314,       144.732,       25.2030,            0.,NA,NA,"",   1.99176E+06,   1.97974E+06,   1.97974E+06
C:/temp/Job-49.odb,Step-1,Increment      1: Step Time =    1.000,"P-49-1",          1315,       58.0377,       27.6524,            0.,NA,NA,"",   2.49796E+06,   2.23295E+06,   2.23295E+06
C:/temp/Job-49.odb,Step-1,Increment      1: Step Time =    1.000,"P-49-1",          1316,       24.8672,       23.2035,            0.,NA,NA,"",   2.20382E+06,   2.19794E+06,   2.19794E+06
C:/temp/Job-49.odb,Step-1,Increment      1: Step Time =    1.000,"P-49-1",          1317,       174.952,       72.2529,            0.,NA,NA,"",   1.87154E+06,   1.45276E+06,   1.45276E+06
C:/temp/Job-49.odb,Step-1,Increment      1: Step Time =    1.000,"P-49-1",          1318,       21.2943,       170.660,            0.,NA,NA,"",   1.80183E+06,   1.82960E+06,   1.82960E+06
C:/temp/Job-49.odb,Step-1,Increment      1: Step Time =    1.000,"P-49-1",          1319,       65.1204,       16.0383,            0.,NA,NA,"",   2.64765E+06,   2.48490E+06,   2.48490E+06
C:/temp/Job-49.odb,Step-1,Increment      1: Step Time =    1.000,"P-49-1",          1320,       38.1311,       18.3684,            0.,NA,NA,"",   2.52903E+06,   2.45736E+06,   2.45736E+06
C:/temp/Job-49.odb,Step-1,Increment      1: Step Time =    1.000,"P-49-1",          1321,       29.9532,       16.9692,            0.,NA,NA,"",   2.57872E+06,   2.54987E+06,   2.54987E+06
C:/temp/Job-49.odb,Step-1,Increment      1: Step Time =    1.000,"P-49-1",          1322,       160.620,       29.3833,            0.,NA,NA,"",   1.84894E+06,   1.74499E+06,   1.74499E+06
C:/temp/Job-49.odb,Step-1,Increment      1: Step Time =    1.000,"P-49-1",          1323,       28.3274,       158.913,            0.,NA,NA,"",   1.20962E+06,   1.15300E+06,   1.15300E+06
C:/temp/Job-49.odb,Step-1,Increment      1: Step Time =    1.000,"P-49-1",          1324,       26.0013,       47.1750,            0.,NA,NA,"",   815.870E+03,   777.523E+03,   777.523E+03
C:/temp/Job-49.odb,Step-1,Increment      1: Step Time =    1.000,"P-49-1",          1325,       24.1322,       27.5158,            0.,NA,NA,"",   1.94733E+06,   1.95055E+06,   1.95055E+06
C:/temp/Job-49.odb,Step-1,Increment      1: Step Time =    1.000,"P-49-1",          1326,       39.2208,       36.1559,            0.,NA,NA,"",   1.68983E+06,   1.51894E+06,   1.51894E+06
C:/temp/Job-49.odb,Step-1,Increment      1: Step Time =    1.000,"P-49-1",          1327,       171.068,       164.977,            0.,NA,NA,"",   1.74143E+06,   1.62737E+06,   1.62737E+06
C:/temp/Job-49.odb,Step-1,Increment      1: Step Time =    1.000,"P-49-1",          1328,       174.415,       169.407,            0.,NA,NA,"",   1.51376E+06,   1.44557E+06,   1.44557E+06
C:/temp/Job-49.odb,Step-1,Increment      1: Step Time =    1.000,"P-49-1",          1329,       175.708,       176.245,            0.,NA,NA,"",   1.31508E+06,   1.27814E+06,   1.27814E+06
C:/temp/Job-49.odb,Step-1,Increment      1: Step Time =    1.000,"P-49-1",          1330,       173.826,       177.303,            0.,NA,NA,"",   1.33012E+06,   1.28862E+06,   1.28862E+06
C:/temp/Job-49.odb,Step-1,Increment      1: Step Time =    1.000,"P-49-1",          1331,       53.1439,       25.8578,            0.,NA,NA,"",   2.43337E+06,   2.20119E+06,   2.20119E+06
C:/temp/Job-49.odb,Step-1,Increment      1: Step Time =    1.000,"P-49-1",          1332,       16.3012,       63.1766,            0.,NA,NA,"",   90.5428E+03,   89.3263E+03,   89.3263E+03
C:/temp/Job-49.odb,Step-1,Increment      1: Step Time =    1.000,"P-49-1",          1333,       136.951,       176.324,            0.,NA,NA,"",   2.04906E+06,   2.10216E+06,   2.10216E+06
C:/temp/Job-49.odb,Step-1,Increment      1: Step Time =    1.000,"P-49-1",          1334,       39.1110,       176.012,            0.,NA,NA,"",   2.30167E+06,   2.19151E+06,   2.19151E+06
C:/temp/Job-49.odb,Step-1,Increment      1: Step Time =    1.000,"P-49-1",          1335,       171.644,       178.289,            0.,NA,NA,"",   1.33953E+06,   1.29422E+06,   1.29422E+06
C:/temp/Job-49.odb,Step-1,Increment      1: Step Time =    1.000,"P-49-1",          1336,       18.8490,       134.301,            0.,NA,NA,"",   101.113E+03,  -66.4980E+03,  -66.4980E+03
C:/temp/Job-49.odb,Step-1,Increment      1: Step Time =    1.000,"P-49-1",          1337,       19.1484,       141.673,            0.,NA,NA,"",   240.605E+03,   241.436E+03,   241.436E+03
C:/temp/Job-49.odb,Step-1,Increment      1: Step Time =    1.000,"P-49-1",          1338,       44.8975,       23.3792,            0.,NA,NA,"",   2.38951E+06,   2.23504E+06,   2.23504E+06
C:/temp/Job-49.odb,Step-1,Increment      1: Step Time =    1.000,"P-49-1",          1339,       145.707,       176.376,            0.,NA,NA,"",   1.86719E+06,   1.84042E+06,   1.84042E+06
C:/temp/Job-49.odb,Step-1,Increment      1: Step Time =    1.000,"P-49-1",          1340,       178.018,       38.5249,            0.,NA,NA,"",   1.56778E+06,   1.49933E+06,   1.49933E+06
C:/temp/Job-49.odb,Step-1,Increment      1: Step Time =    1.000,"P-49-1",          1341,       160.563,       165.907,            0.,NA,NA,"",   2.02761E+06,   1.89461E+06,   1.89461E+06
C:/temp/Job-49.odb,Step-1,Increment      1: Step Time =    1.000,"P-49-1",          1342,       19.4500,       161.444,            0.,NA,NA,"",   1.24161E+06,   1.27572E+06,   1.27572E+06
C:/temp/Job-49.odb,Step-1,Increment      1: Step Time =    1.000,"P-49-1",          1343,       146.512,       163.758,            0.,NA,NA,"",   2.49015E+06,   2.46388E+06,   2.46388E+06
C:/temp/Job-49.odb,Step-1,Increment      1: Step Time =    1.000,"P-49-1",          1344,       25.8558,       161.949,            0.,NA,NA,"",   1.35070E+06,   1.32738E+06,   1.32738E+06
C:/temp/Job-49.odb,Step-1,Increment      1: Step Time =    1.000,"P-49-1",          1345,       50.6075,       180.347,            0.,NA,NA,"",   2.56972E+06,   2.41688E+06,   2.41688E+06
C:/temp/Job-49.odb,Step-1,Increment      1: Step Time =    1.000,"P-49-1",          1346,       23.0622,       159.980,            0.,NA,NA,"",   1.20160E+06,   1.20108E+06,   1.20108E+06
C:/temp/Job-49.odb,Step-1,Increment      1: Step Time =    1.000,"P-49-1",          1347,       24.7863,       149.775,            0.,NA,NA,"",   658.155E+03,   628.999E+03,   628.999E+03
C:/temp/Job-49.odb,Step-1,Increment      1: Step Time =    1.000,"P-49-1",          1348,       35.8112,       22.5389,            0.,NA,NA,"",   2.34715E+06,   2.26690E+06,   2.26690E+06
C:/temp/Job-49.odb,Step-1,Increment      1: Step Time =    1.000,"P-49-1",          1349,       168.060,       41.9953,            0.,NA,NA,"",   2.02672E+06,   1.83533E+06,   1.83533E+06
C:/temp/Job-49.odb,Step-1,Increment      1: Step Time =    1.000,"P-49-1",          1350,       24.3749,       170.992,            0.,NA,NA,"",   1.85578E+06,   1.85161E+06,   1.85161E+06
C:/temp/Job-49.odb,Step-1,Increment      1: Step Time =    1.000,"P-49-1",          1351,       25.5881,       168.579,            0.,NA,NA,"",   1.73918E+06,   1.72528E+06,   1.72528E+06
C:/temp/Job-49.odb,Step-1,Increment      1: Step Time =    1.000,"P-49-1",          1352,       23.3138,       164.239,            0.,NA,NA,"",   1.47130E+06,   1.47636E+06,   1.47636E+06
C:/temp/Job-49.odb,Step-1,Increment      1: Step Time =    1.000,"P-49-1",          1353,       23.7367,       157.005,            0.,NA,NA,"",   1.03976E+06,   1.02848E+06,   1.02848E+06
C:/temp/Job-49.odb,Step-1,Increment      1: Step Time =    1.000,"P-49-1",          1354,       166.288,       33.0226,            0.,NA,NA,"",   1.82020E+06,   1.69872E+06,   1.69872E+06
C:/temp/Job-49.odb,Step-1,Increment      1: Step Time =    1.000,"P-49-1",          1355,       172.561,       171.636,            0.,NA,NA,"",   1.49625E+06,   1.43012E+06,   1.43012E+06
C:/temp/Job-49.odb,Step-1,Increment      1: Step Time =    1.000,"P-49-1",          1356,       154.424,       173.096,            0.,NA,NA,"",   1.87959E+06,   1.79926E+06,   1.79926E+06
