ODB Name,Step,Frame,Part Instance Name,    Node Label,X,Y,Z,Section Name,Material Name,Section Point,       S-Mises,S-Max. In-Plane Principal (Abs),S-Max. Principal (Abs)
C:/temp/Job-5.odb,Step-1,Increment      1: Step Time =    1.000,"P-5-1",             1,       85.1955,       148.804,            0.,NA,NA,"",   2.97947E+06,   3.04473E+06,   3.04473E+06
C:/temp/Job-5.odb,Step-1,Increment      1: Step Time =    1.000,"P-5-1",             2,       71.6659,       142.405,            0.,NA,NA,"",   1.18281E+06,   1.18277E+06,   1.18277E+06
C:/temp/Job-5.odb,Step-1,Increment      1: Step Time =    1.000,"P-5-1",             3,       60.5765,       132.354,            0.,NA,NA,"",   438.122E+03,  -362.814E+03,  -362.814E+03
C:/temp/Job-5.odb,Step-1,Increment      1: Step Time =    1.000,"P-5-1",             4,       52.8821,       119.517,            0.,NA,NA,"",   800.115E+03,  -818.360E+03,  -818.360E+03
C:/temp/Job-5.odb,Step-1,Increment      1: Step Time =    1.000,"P-5-1",             5,       49.2456,       104.999,            0.,NA,NA,"",   873.204E+03,  -889.329E+03,  -889.329E+03
C:/temp/Job-5.odb,Step-1,Increment      1: Step Time =    1.000,"P-5-1",             6,       49.2456,       95.0011,            0.,NA,NA,"",   858.985E+03,  -878.537E+03,  -878.537E+03
C:/temp/Job-5.odb,Step-1,Increment      1: Step Time =    1.000,"P-5-1",             7,       52.8821,       80.4831,            0.,NA,NA,"",   870.029E+03,  -880.242E+03,  -880.242E+03
C:/temp/Job-5.odb,Step-1,Increment      1: Step Time =    1.000,"P-5-1",             8,       60.5765,       67.6459,            0.,NA,NA,"",   462.611E+03,  -397.897E+03,  -397.897E+03
C:/temp/Job-5.odb,Step-1,Increment      1: Step Time =    1.000,"P-5-1",             9,       71.6659,       57.5951,            0.,NA,NA,"",   1.17694E+06,   1.17253E+06,   1.17253E+06
C:/temp/Job-5.odb,Step-1,Increment      1: Step Time =    1.000,"P-5-1",            10,       85.1955,       51.1960,            0.,NA,NA,"",   3.03928E+06,   3.07508E+06,   3.07508E+06
C:/temp/Job-5.odb,Step-1,Increment      1: Step Time =    1.000,"P-5-1",            11,          100.,           49.,            0.,NA,NA,"",   4.36813E+06,   4.43501E+06,   4.43501E+06
C:/temp/Job-5.odb,Step-1,Increment      1: Step Time =    1.000,"P-5-1",            12,       114.805,       51.1960,            0.,NA,NA,"",   4.25090E+06,   4.33178E+06,   4.33178E+06
C:/temp/Job-5.odb,Step-1,Increment      1: Step Time =    1.000,"P-5-1",            13,       128.334,       57.5951,            0.,NA,NA,"",   3.03308E+06,   3.07232E+06,   3.07232E+06
C:/temp/Job-5.odb,Step-1,Increment      1: Step Time =    1.000,"P-5-1",            14,       139.424,       67.6459,            0.,NA,NA,"",   1.21570E+06,   1.19556E+06,   1.19556E+06
C:/temp/Job-5.odb,Step-1,Increment      1: Step Time =    1.000,"P-5-1",            15,       147.118,       80.4831,            0.,NA,NA,"",   1.04389E+06,  -996.395E+03,  -996.395E+03
C:/temp/Job-5.odb,Step-1,Increment      1: Step Time =    1.000,"P-5-1",            16,       150.754,       95.0011,            0.,NA,NA,"",   2.13454E+06,  -2.16231E+06,  -2.16231E+06
C:/temp/Job-5.odb,Step-1,Increment      1: Step Time =    1.000,"P-5-1",            17,       150.754,       104.999,            0.,NA,NA,"",   2.07606E+06,  -2.10241E+06,  -2.10241E+06
C:/temp/Job-5.odb,Step-1,Increment      1: Step Time =    1.000,"P-5-1",            18,       147.118,       119.517,            0.,NA,NA,"",   988.819E+03,  -975.040E+03,  -975.040E+03
C:/temp/Job-5.odb,Step-1,Increment      1: Step Time =    1.000,"P-5-1",            19,       139.424,       132.354,            0.,NA,NA,"",   1.12261E+06,   1.10699E+06,   1.10699E+06
C:/temp/Job-5.odb,Step-1,Increment      1: Step Time =    1.000,"P-5-1",            20,       128.334,       142.405,            0.,NA,NA,"",   2.92255E+06,   2.97833E+06,   2.97833E+06
C:/temp/Job-5.odb,Step-1,Increment      1: Step Time =    1.000,"P-5-1",            21,       114.805,       148.804,            0.,NA,NA,"",   4.30574E+06,   4.37241E+06,   4.37241E+06
C:/temp/Job-5.odb,Step-1,Increment      1: Step Time =    1.000,"P-5-1",            22,          100.,          151.,            0.,NA,NA,"",   4.39019E+06,   4.45992E+06,   4.45992E+06
C:/temp/Job-5.odb,Step-1,Increment      1: Step Time =    1.000,"P-5-1",            23,          190.,            0.,            0.,NA,NA,"",   988.708E+03,   988.542E+03,   988.542E+03
C:/temp/Job-5.odb,Step-1,Increment      1: Step Time =    1.000,"P-5-1",            24,          180.,            0.,            0.,NA,NA,"",   971.405E+03,   971.255E+03,   971.255E+03
C:/temp/Job-5.odb,Step-1,Increment      1: Step Time =    1.000,"P-5-1",            25,          170.,            0.,            0.,NA,NA,"",   947.200E+03,   946.316E+03,   946.316E+03
C:/temp/Job-5.odb,Step-1,Increment      1: Step Time =    1.000,"P-5-1",            26,          160.,            0.,            0.,NA,NA,"",   892.278E+03,   890.641E+03,   890.641E+03
C:/temp/Job-5.odb,Step-1,Increment      1: Step Time =    1.000,"P-5-1",            27,          150.,            0.,            0.,NA,NA,"",   787.218E+03,   785.022E+03,   785.022E+03
C:/temp/Job-5.odb,Step-1,Increment      1: Step Time =    1.000,"P-5-1",            28,          140.,            0.,            0.,NA,NA,"",   634.117E+03,   631.907E+03,   631.907E+03
C:/temp/Job-5.odb,Step-1,Increment      1: Step Time =    1.000,"P-5-1",            29,          130.,            0.,            0.,NA,NA,"",   461.400E+03,   461.305E+03,   461.305E+03
C:/temp/Job-5.odb,Step-1,Increment      1: Step Time =    1.000,"P-5-1",            30,          120.,            0.,            0.,NA,NA,"",   339.001E+03,   341.541E+03,   341.541E+03
C:/temp/Job-5.odb,Step-1,Increment      1: Step Time =    1.000,"P-5-1",            31,          110.,            0.,            0.,NA,NA,"",   325.704E+03,   330.317E+03,   330.317E+03
C:/temp/Job-5.odb,Step-1,Increment      1: Step Time =    1.000,"P-5-1",            32,          100.,            0.,            0.,NA,NA,"",   463.075E+03,   464.925E+03,   464.925E+03
C:/temp/Job-5.odb,Step-1,Increment      1: Step Time =    1.000,"P-5-1",            33,           90.,            0.,            0.,NA,NA,"",   739.809E+03,   737.574E+03,   737.574E+03
C:/temp/Job-5.odb,Step-1,Increment      1: Step Time =    1.000,"P-5-1",            34,           80.,            0.,            0.,NA,NA,"",   1.10064E+06,   1.09684E+06,   1.09684E+06
C:/temp/Job-5.odb,Step-1,Increment      1: Step Time =    1.000,"P-5-1",            35,           70.,            0.,            0.,NA,NA,"",   1.48210E+06,   1.47863E+06,   1.47863E+06
C:/temp/Job-5.odb,Step-1,Increment      1: Step Time =    1.000,"P-5-1",            36,           60.,            0.,            0.,NA,NA,"",   1.82167E+06,   1.81973E+06,   1.81973E+06
C:/temp/Job-5.odb,Step-1,Increment      1: Step Time =    1.000,"P-5-1",            37,           50.,            0.,            0.,NA,NA,"",   2.07652E+06,   2.06822E+06,   2.06822E+06
C:/temp/Job-5.odb,Step-1,Increment      1: Step Time =    1.000,"P-5-1",            38,           40.,            0.,            0.,NA,NA,"",   2.24503E+06,   2.24254E+06,   2.24254E+06
C:/temp/Job-5.odb,Step-1,Increment      1: Step Time =    1.000,"P-5-1",            39,           30.,            0.,            0.,NA,NA,"",   2.33309E+06,   2.33177E+06,   2.33177E+06
C:/temp/Job-5.odb,Step-1,Increment      1: Step Time =    1.000,"P-5-1",            40,           20.,            0.,            0.,NA,NA,"",   2.38867E+06,   2.38790E+06,   2.38790E+06
C:/temp/Job-5.odb,Step-1,Increment      1: Step Time =    1.000,"P-5-1",            41,           10.,            0.,            0.,NA,NA,"",   2.51078E+06,   2.51320E+06,   2.51320E+06
C:/temp/Job-5.odb,Step-1,Increment      1: Step Time =    1.000,"P-5-1",            42,          200.,            0.,            0.,NA,NA,"",   999.168E+03,   998.301E+03,   998.301E+03
C:/temp/Job-5.odb,Step-1,Increment      1: Step Time =    1.000,"P-5-1",            43,            0.,            0.,            0.,NA,NA,"",   2.93741E+06,   3.08441E+06,   3.08441E+06
C:/temp/Job-5.odb,Step-1,Increment      1: Step Time =    1.000,"P-5-1",            44,          200.,          190.,            0.,NA,NA,"",   1.00606E+06,   1.00047E+06,   1.00047E+06
C:/temp/Job-5.odb,Step-1,Increment      1: Step Time =    1.000,"P-5-1",            45,          200.,          180.,            0.,NA,NA,"",   1.01046E+06,   1.00343E+06,   1.00343E+06
C:/temp/Job-5.odb,Step-1,Increment      1: Step Time =    1.000,"P-5-1",            46,          200.,          170.,            0.,NA,NA,"",   989.377E+03,   1.00606E+06,   1.00606E+06
C:/temp/Job-5.odb,Step-1,Increment      1: Step Time =    1.000,"P-5-1",            47,          200.,          160.,            0.,NA,NA,"",   934.950E+03,   1.00943E+06,   1.00943E+06
C:/temp/Job-5.odb,Step-1,Increment      1: Step Time =    1.000,"P-5-1",            48,          200.,          150.,            0.,NA,NA,"",   887.991E+03,   1.01762E+06,   1.01762E+06
C:/temp/Job-5.odb,Step-1,Increment      1: Step Time =    1.000,"P-5-1",            49,          200.,          140.,            0.,NA,NA,"",   949.937E+03,   1.05930E+06,   1.05930E+06
C:/temp/Job-5.odb,Step-1,Increment      1: Step Time =    1.000,"P-5-1",            50,          200.,          130.,            0.,NA,NA,"",   1.18399E+06,   1.32270E+06,   1.32270E+06
C:/temp/Job-5.odb,Step-1,Increment      1: Step Time =    1.000,"P-5-1",            51,          200.,          120.,            0.,NA,NA,"",   1.50518E+06,   1.73218E+06,   1.73218E+06
C:/temp/Job-5.odb,Step-1,Increment      1: Step Time =    1.000,"P-5-1",            52,          200.,          110.,            0.,NA,NA,"",   1.76752E+06,   2.04030E+06,   2.04030E+06
C:/temp/Job-5.odb,Step-1,Increment      1: Step Time =    1.000,"P-5-1",            53,          200.,          100.,            0.,NA,NA,"",   1.86574E+06,   2.15176E+06,   2.15176E+06
C:/temp/Job-5.odb,Step-1,Increment      1: Step Time =    1.000,"P-5-1",            54,          200.,           90.,            0.,NA,NA,"",   1.76482E+06,   2.03718E+06,   2.03718E+06
C:/temp/Job-5.odb,Step-1,Increment      1: Step Time =    1.000,"P-5-1",            55,          200.,           80.,            0.,NA,NA,"",   1.50711E+06,   1.73449E+06,   1.73449E+06
C:/temp/Job-5.odb,Step-1,Increment      1: Step Time =    1.000,"P-5-1",            56,          200.,           70.,            0.,NA,NA,"",   1.18733E+06,   1.32923E+06,   1.32923E+06
C:/temp/Job-5.odb,Step-1,Increment      1: Step Time =    1.000,"P-5-1",            57,          200.,           60.,            0.,NA,NA,"",   953.092E+03,   1.07468E+06,   1.07468E+06
C:/temp/Job-5.odb,Step-1,Increment      1: Step Time =    1.000,"P-5-1",            58,          200.,           50.,            0.,NA,NA,"",   909.594E+03,   1.04013E+06,   1.04013E+06
C:/temp/Job-5.odb,Step-1,Increment      1: Step Time =    1.000,"P-5-1",            59,          200.,           40.,            0.,NA,NA,"",   939.597E+03,   1.00961E+06,   1.00961E+06
C:/temp/Job-5.odb,Step-1,Increment      1: Step Time =    1.000,"P-5-1",            60,          200.,           30.,            0.,NA,NA,"",   991.069E+03,   1.00483E+06,   1.00483E+06
C:/temp/Job-5.odb,Step-1,Increment      1: Step Time =    1.000,"P-5-1",            61,          200.,           20.,            0.,NA,NA,"",   1.01009E+06,   1.00250E+06,   1.00250E+06
C:/temp/Job-5.odb,Step-1,Increment      1: Step Time =    1.000,"P-5-1",            62,          200.,           10.,            0.,NA,NA,"",   1.00562E+06,   1.00019E+06,   1.00019E+06
C:/temp/Job-5.odb,Step-1,Increment      1: Step Time =    1.000,"P-5-1",            63,          200.,          200.,            0.,NA,NA,"",   999.165E+03,   998.300E+03,   998.300E+03
C:/temp/Job-5.odb,Step-1,Increment      1: Step Time =    1.000,"P-5-1",            64,           10.,          200.,            0.,NA,NA,"",   2.51290E+06,   2.51445E+06,   2.51445E+06
C:/temp/Job-5.odb,Step-1,Increment      1: Step Time =    1.000,"P-5-1",            65,           20.,          200.,            0.,NA,NA,"",   2.38741E+06,   2.38695E+06,   2.38695E+06
C:/temp/Job-5.odb,Step-1,Increment      1: Step Time =    1.000,"P-5-1",            66,           30.,          200.,            0.,NA,NA,"",   2.32946E+06,   2.32794E+06,   2.32794E+06
C:/temp/Job-5.odb,Step-1,Increment      1: Step Time =    1.000,"P-5-1",            67,           40.,          200.,            0.,NA,NA,"",   2.23881E+06,   2.23619E+06,   2.23619E+06
C:/temp/Job-5.odb,Step-1,Increment      1: Step Time =    1.000,"P-5-1",            68,           50.,          200.,            0.,NA,NA,"",   2.07703E+06,    2.0735E+06,    2.0735E+06
C:/temp/Job-5.odb,Step-1,Increment      1: Step Time =    1.000,"P-5-1",            69,           60.,          200.,            0.,NA,NA,"",   1.82563E+06,   1.82096E+06,   1.82096E+06
C:/temp/Job-5.odb,Step-1,Increment      1: Step Time =    1.000,"P-5-1",            70,           70.,          200.,            0.,NA,NA,"",   1.49058E+06,   1.48525E+06,   1.48525E+06
C:/temp/Job-5.odb,Step-1,Increment      1: Step Time =    1.000,"P-5-1",            71,           80.,          200.,            0.,NA,NA,"",   1.10926E+06,   1.10508E+06,   1.10508E+06
C:/temp/Job-5.odb,Step-1,Increment      1: Step Time =    1.000,"P-5-1",            72,           90.,          200.,            0.,NA,NA,"",   743.276E+03,   741.638E+03,   741.638E+03
C:/temp/Job-5.odb,Step-1,Increment      1: Step Time =    1.000,"P-5-1",            73,          100.,          200.,            0.,NA,NA,"",   462.743E+03,   464.441E+03,   464.441E+03
C:/temp/Job-5.odb,Step-1,Increment      1: Step Time =    1.000,"P-5-1",            74,          110.,          200.,            0.,NA,NA,"",   317.909E+03,   321.884E+03,   321.884E+03
C:/temp/Job-5.odb,Step-1,Increment      1: Step Time =    1.000,"P-5-1",            75,          120.,          200.,            0.,NA,NA,"",   324.607E+03,   327.219E+03,   327.219E+03
C:/temp/Job-5.odb,Step-1,Increment      1: Step Time =    1.000,"P-5-1",            76,          130.,          200.,            0.,NA,NA,"",   457.377E+03,   457.821E+03,   457.821E+03
C:/temp/Job-5.odb,Step-1,Increment      1: Step Time =    1.000,"P-5-1",            77,          140.,          200.,            0.,NA,NA,"",   657.135E+03,   655.231E+03,   655.231E+03
C:/temp/Job-5.odb,Step-1,Increment      1: Step Time =    1.000,"P-5-1",            78,          150.,          200.,            0.,NA,NA,"",   810.238E+03,   804.114E+03,   804.114E+03
C:/temp/Job-5.odb,Step-1,Increment      1: Step Time =    1.000,"P-5-1",            79,          160.,          200.,            0.,NA,NA,"",   898.189E+03,   896.697E+03,   896.697E+03
C:/temp/Job-5.odb,Step-1,Increment      1: Step Time =    1.000,"P-5-1",            80,          170.,          200.,            0.,NA,NA,"",   946.225E+03,   945.454E+03,   945.454E+03
C:/temp/Job-5.odb,Step-1,Increment      1: Step Time =    1.000,"P-5-1",            81,          180.,          200.,            0.,NA,NA,"",   969.459E+03,   969.490E+03,   969.490E+03
C:/temp/Job-5.odb,Step-1,Increment      1: Step Time =    1.000,"P-5-1",            82,          190.,          200.,            0.,NA,NA,"",   988.013E+03,   987.953E+03,   987.953E+03
C:/temp/Job-5.odb,Step-1,Increment      1: Step Time =    1.000,"P-5-1",            83,            0.,          200.,            0.,NA,NA,"",   2.93768E+06,   3.08656E+06,   3.08656E+06
C:/temp/Job-5.odb,Step-1,Increment      1: Step Time =    1.000,"P-5-1",            84,            0.,           10.,            0.,NA,NA,"",   2.08230E+06,   2.28510E+06,   2.28510E+06
C:/temp/Job-5.odb,Step-1,Increment      1: Step Time =    1.000,"P-5-1",            85,            0.,           20.,            0.,NA,NA,"",   1.64590E+06,   1.83167E+06,   1.83167E+06
C:/temp/Job-5.odb,Step-1,Increment      1: Step Time =    1.000,"P-5-1",            86,            0.,           30.,            0.,NA,NA,"",   1.32217E+06,   1.47916E+06,   1.47916E+06
C:/temp/Job-5.odb,Step-1,Increment      1: Step Time =    1.000,"P-5-1",            87,            0.,           40.,            0.,NA,NA,"",   1.04080E+06,   1.16426E+06,   1.16426E+06
C:/temp/Job-5.odb,Step-1,Increment      1: Step Time =    1.000,"P-5-1",            88,            0.,           50.,            0.,NA,NA,"",   787.919E+03,   877.275E+03,   877.275E+03
C:/temp/Job-5.odb,Step-1,Increment      1: Step Time =    1.000,"P-5-1",            89,            0.,           60.,            0.,NA,NA,"",   548.838E+03,   602.676E+03,   602.676E+03
C:/temp/Job-5.odb,Step-1,Increment      1: Step Time =    1.000,"P-5-1",            90,            0.,           70.,            0.,NA,NA,"",   349.207E+03,   368.462E+03,   368.462E+03
C:/temp/Job-5.odb,Step-1,Increment      1: Step Time =    1.000,"P-5-1",            91,            0.,           80.,            0.,NA,NA,"",   195.384E+03,   181.351E+03,   181.351E+03
C:/temp/Job-5.odb,Step-1,Increment      1: Step Time =    1.000,"P-5-1",            92,            0.,           90.,            0.,NA,NA,"",   105.531E+03,   4.89033E+03,   4.89033E+03
C:/temp/Job-5.odb,Step-1,Increment      1: Step Time =    1.000,"P-5-1",            93,            0.,          100.,            0.,NA,NA,"",   80.7060E+03,  -75.2156E+03,  -75.2156E+03
C:/temp/Job-5.odb,Step-1,Increment      1: Step Time =    1.000,"P-5-1",            94,            0.,          110.,            0.,NA,NA,"",   105.508E+03,   4.28851E+03,   4.28851E+03
C:/temp/Job-5.odb,Step-1,Increment      1: Step Time =    1.000,"P-5-1",            95,            0.,          120.,            0.,NA,NA,"",   194.417E+03,   179.628E+03,   179.628E+03
C:/temp/Job-5.odb,Step-1,Increment      1: Step Time =    1.000,"P-5-1",            96,            0.,          130.,            0.,NA,NA,"",   347.493E+03,   366.390E+03,   366.390E+03
C:/temp/Job-5.odb,Step-1,Increment      1: Step Time =    1.000,"P-5-1",            97,            0.,          140.,            0.,NA,NA,"",   554.255E+03,   607.148E+03,   607.148E+03
C:/temp/Job-5.odb,Step-1,Increment      1: Step Time =    1.000,"P-5-1",            98,            0.,          150.,            0.,NA,NA,"",   796.219E+03,   889.909E+03,   889.909E+03
C:/temp/Job-5.odb,Step-1,Increment      1: Step Time =    1.000,"P-5-1",            99,            0.,          160.,            0.,NA,NA,"",   1.04872E+06,   1.17522E+06,   1.17522E+06
C:/temp/Job-5.odb,Step-1,Increment      1: Step Time =    1.000,"P-5-1",           100,            0.,          170.,            0.,NA,NA,"",   1.32051E+06,   1.47709E+06,   1.47709E+06
C:/temp/Job-5.odb,Step-1,Increment      1: Step Time =    1.000,"P-5-1",           101,            0.,          180.,            0.,NA,NA,"",   1.64397E+06,   1.82904E+06,   1.82904E+06
C:/temp/Job-5.odb,Step-1,Increment      1: Step Time =    1.000,"P-5-1",           102,            0.,          190.,            0.,NA,NA,"",   2.08004E+06,   2.28284E+06,   2.28284E+06
C:/temp/Job-5.odb,Step-1,Increment      1: Step Time =    1.000,"P-5-1",           103,       104.461,       40.0291,            0.,NA,NA,"",   3.08985E+06,   3.26993E+06,   3.26993E+06
C:/temp/Job-5.odb,Step-1,Increment      1: Step Time =    1.000,"P-5-1",           104,       190.252,       43.0043,            0.,NA,NA,"",   1.03373E+06,   1.10893E+06,   1.10893E+06
C:/temp/Job-5.odb,Step-1,Increment      1: Step Time =    1.000,"P-5-1",           105,       160.664,       104.689,            0.,NA,NA,"",   972.165E+03,  -954.262E+03,  -954.262E+03
C:/temp/Job-5.odb,Step-1,Increment      1: Step Time =    1.000,"P-5-1",           106,       40.3086,       95.5730,            0.,NA,NA,"",   488.708E+03,  -534.802E+03,  -534.802E+03
C:/temp/Job-5.odb,Step-1,Increment      1: Step Time =    1.000,"P-5-1",           107,       190.443,       159.560,            0.,NA,NA,"",   1.02931E+06,   1.09223E+06,   1.09223E+06
C:/temp/Job-5.odb,Step-1,Increment      1: Step Time =    1.000,"P-5-1",           108,       176.428,       159.269,            0.,NA,NA,"",   1.36739E+06,   1.32616E+06,   1.32616E+06
C:/temp/Job-5.odb,Step-1,Increment      1: Step Time =    1.000,"P-5-1",           109,       165.865,       158.008,            0.,NA,NA,"",   1.65934E+06,   1.52444E+06,   1.52444E+06
C:/temp/Job-5.odb,Step-1,Increment      1: Step Time =    1.000,"P-5-1",           110,       156.222,       159.939,            0.,NA,NA,"",   1.81820E+06,   1.67521E+06,   1.67521E+06
C:/temp/Job-5.odb,Step-1,Increment      1: Step Time =    1.000,"P-5-1",           111,       148.316,       153.553,            0.,NA,NA,"",   2.05994E+06,   1.91315E+06,   1.91315E+06
C:/temp/Job-5.odb,Step-1,Increment      1: Step Time =    1.000,"P-5-1",           112,       137.874,       159.865,            0.,NA,NA,"",   2.09388E+06,   2.08079E+06,   2.08079E+06
C:/temp/Job-5.odb,Step-1,Increment      1: Step Time =    1.000,"P-5-1",           113,       128.700,       158.090,            0.,NA,NA,"",   2.39006E+06,   2.49102E+06,   2.49102E+06
C:/temp/Job-5.odb,Step-1,Increment      1: Step Time =    1.000,"P-5-1",           114,       115.913,       157.800,            0.,NA,NA,"",   3.06282E+06,   3.23229E+06,   3.23229E+06
C:/temp/Job-5.odb,Step-1,Increment      1: Step Time =    1.000,"P-5-1",           115,       105.712,       159.428,            0.,NA,NA,"",   3.16836E+06,   3.34419E+06,   3.34419E+06
C:/temp/Job-5.odb,Step-1,Increment      1: Step Time =    1.000,"P-5-1",           116,       95.2374,       159.807,            0.,NA,NA,"",   2.99120E+06,   3.12984E+06,   3.12984E+06
C:/temp/Job-5.odb,Step-1,Increment      1: Step Time =    1.000,"P-5-1",           117,       85.1920,       160.789,            0.,NA,NA,"",   2.54413E+06,   2.60544E+06,   2.60544E+06
C:/temp/Job-5.odb,Step-1,Increment      1: Step Time =    1.000,"P-5-1",           118,       70.9417,       158.545,            0.,NA,NA,"",   2.13724E+06,   2.03023E+06,   2.03023E+06
C:/temp/Job-5.odb,Step-1,Increment      1: Step Time =    1.000,"P-5-1",           119,       63.5678,       157.655,            0.,NA,NA,"",   1.97086E+06,   1.79313E+06,   1.79313E+06
C:/temp/Job-5.odb,Step-1,Increment      1: Step Time =    1.000,"P-5-1",           120,       53.4585,       160.163,            0.,NA,NA,"",   1.84527E+06,   1.65194E+06,   1.65194E+06
C:/temp/Job-5.odb,Step-1,Increment      1: Step Time =    1.000,"P-5-1",           121,       41.6058,       159.235,            0.,NA,NA,"",   1.58444E+06,   1.44525E+06,   1.44525E+06
C:/temp/Job-5.odb,Step-1,Increment      1: Step Time =    1.000,"P-5-1",           122,       31.2187,       160.197,            0.,NA,NA,"",   1.43925E+06,   1.37944E+06,   1.37944E+06
C:/temp/Job-5.odb,Step-1,Increment      1: Step Time =    1.000,"P-5-1",           123,       19.4556,       160.163,            0.,NA,NA,"",   1.26552E+06,   1.29735E+06,   1.29735E+06
C:/temp/Job-5.odb,Step-1,Increment      1: Step Time =    1.000,"P-5-1",           124,       8.95441,       159.492,            0.,NA,NA,"",   1.10432E+06,   1.20016E+06,   1.20016E+06
C:/temp/Job-5.odb,Step-1,Increment      1: Step Time =    1.000,"P-5-1",           125,       9.96045,       149.645,            0.,NA,NA,"",   828.468E+03,   897.283E+03,   897.283E+03
C:/temp/Job-5.odb,Step-1,Increment      1: Step Time =    1.000,"P-5-1",           126,       19.7943,       149.473,            0.,NA,NA,"",   913.719E+03,   933.038E+03,   933.038E+03
C:/temp/Job-5.odb,Step-1,Increment      1: Step Time =    1.000,"P-5-1",           127,       32.7909,       148.167,            0.,NA,NA,"",   1.05494E+06,   979.354E+03,   979.354E+03
C:/temp/Job-5.odb,Step-1,Increment      1: Step Time =    1.000,"P-5-1",           128,       41.7989,       146.684,            0.,NA,NA,"",   1.12535E+06,   965.982E+03,   965.982E+03
C:/temp/Job-5.odb,Step-1,Increment      1: Step Time =    1.000,"P-5-1",           129,       54.9900,       147.038,            0.,NA,NA,"",   1.30312E+06,   1.09049E+06,   1.09049E+06
C:/temp/Job-5.odb,Step-1,Increment      1: Step Time =    1.000,"P-5-1",           130,       63.7074,       147.927,            0.,NA,NA,"",   1.42677E+06,   1.27864E+06,   1.27864E+06
C:/temp/Job-5.odb,Step-1,Increment      1: Step Time =    1.000,"P-5-1",           131,       138.309,       147.710,            0.,NA,NA,"",   2.22955E+06,   2.20320E+06,   2.20320E+06
C:/temp/Job-5.odb,Step-1,Increment      1: Step Time =    1.000,"P-5-1",           132,       147.795,       145.328,            0.,NA,NA,"",   2.01859E+06,   1.82867E+06,   1.82867E+06
C:/temp/Job-5.odb,Step-1,Increment      1: Step Time =    1.000,"P-5-1",           133,       161.073,       147.485,            0.,NA,NA,"",   1.89218E+06,   1.64443E+06,   1.64443E+06
C:/temp/Job-5.odb,Step-1,Increment      1: Step Time =    1.000,"P-5-1",           134,       169.132,       148.249,            0.,NA,NA,"",   1.68850E+06,   1.52039E+06,   1.52039E+06
C:/temp/Job-5.odb,Step-1,Increment      1: Step Time =    1.000,"P-5-1",           135,       179.651,       144.748,            0.,NA,NA,"",   1.40918E+06,   1.38517E+06,   1.38517E+06
C:/temp/Job-5.odb,Step-1,Increment      1: Step Time =    1.000,"P-5-1",           136,       190.388,       149.756,            0.,NA,NA,"",   1.04845E+06,   1.15176E+06,   1.15176E+06
C:/temp/Job-5.odb,Step-1,Increment      1: Step Time =    1.000,"P-5-1",           137,       149.053,       136.146,            0.,NA,NA,"",   1.66514E+06,   1.39117E+06,   1.39117E+06
C:/temp/Job-5.odb,Step-1,Increment      1: Step Time =    1.000,"P-5-1",           138,       159.341,       138.115,            0.,NA,NA,"",   1.86101E+06,   1.50798E+06,   1.50798E+06
C:/temp/Job-5.odb,Step-1,Increment      1: Step Time =    1.000,"P-5-1",           139,       166.025,       135.844,            0.,NA,NA,"",   1.74854E+06,   1.44326E+06,   1.44326E+06
C:/temp/Job-5.odb,Step-1,Increment      1: Step Time =    1.000,"P-5-1",           140,       181.629,       134.819,            0.,NA,NA,"",   1.36595E+06,   1.38739E+06,   1.38739E+06
C:/temp/Job-5.odb,Step-1,Increment      1: Step Time =    1.000,"P-5-1",           141,       190.417,       135.078,            0.,NA,NA,"",   1.13541E+06,   1.28745E+06,   1.28745E+06
C:/temp/Job-5.odb,Step-1,Increment      1: Step Time =    1.000,"P-5-1",           142,       156.483,       128.398,            0.,NA,NA,"",   1.52697E+06,   1.02904E+06,   1.02904E+06
C:/temp/Job-5.odb,Step-1,Increment      1: Step Time =    1.000,"P-5-1",           143,       168.354,       124.605,            0.,NA,NA,"",   1.43495E+06,   1.12754E+06,   1.12754E+06
C:/temp/Job-5.odb,Step-1,Increment      1: Step Time =    1.000,"P-5-1",           144,       180.860,       125.854,            0.,NA,NA,"",   1.29074E+06,   1.32784E+06,   1.32784E+06
C:/temp/Job-5.odb,Step-1,Increment      1: Step Time =    1.000,"P-5-1",           145,       190.124,       125.094,            0.,NA,NA,"",   1.21079E+06,   1.38584E+06,   1.38584E+06
C:/temp/Job-5.odb,Step-1,Increment      1: Step Time =    1.000,"P-5-1",           146,       157.874,       114.927,            0.,NA,NA,"",   1.13478E+06,  -992.510E+03,  -992.510E+03
C:/temp/Job-5.odb,Step-1,Increment      1: Step Time =    1.000,"P-5-1",           147,       167.318,       116.080,            0.,NA,NA,"",   1.06026E+06,   504.792E+03,   504.792E+03
C:/temp/Job-5.odb,Step-1,Increment      1: Step Time =    1.000,"P-5-1",           148,       179.417,       115.091,            0.,NA,NA,"",   1.00766E+06,   1.08136E+06,   1.08136E+06
C:/temp/Job-5.odb,Step-1,Increment      1: Step Time =    1.000,"P-5-1",           149,       189.825,       115.146,            0.,NA,NA,"",   1.24117E+06,   1.43030E+06,   1.43030E+06
C:/temp/Job-5.odb,Step-1,Increment      1: Step Time =    1.000,"P-5-1",           150,       170.398,       103.546,            0.,NA,NA,"",   417.699E+03,   351.193E+03,   351.193E+03
C:/temp/Job-5.odb,Step-1,Increment      1: Step Time =    1.000,"P-5-1",           151,       179.136,       105.491,            0.,NA,NA,"",   705.770E+03,   800.028E+03,   800.028E+03
C:/temp/Job-5.odb,Step-1,Increment      1: Step Time =    1.000,"P-5-1",           152,       189.787,       105.183,            0.,NA,NA,"",   1.24255E+06,   1.42417E+06,   1.42417E+06
C:/temp/Job-5.odb,Step-1,Increment      1: Step Time =    1.000,"P-5-1",           153,       157.345,       83.8975,            0.,NA,NA,"",   1.15179E+06,  -977.448E+03,  -977.448E+03
C:/temp/Job-5.odb,Step-1,Increment      1: Step Time =    1.000,"P-5-1",           154,       179.323,       85.1742,            0.,NA,NA,"",   1.00135E+06,   1.07665E+06,   1.07665E+06
C:/temp/Job-5.odb,Step-1,Increment      1: Step Time =    1.000,"P-5-1",           155,       189.722,       85.0914,            0.,NA,NA,"",   1.23450E+06,   1.42274E+06,   1.42274E+06
C:/temp/Job-5.odb,Step-1,Increment      1: Step Time =    1.000,"P-5-1",           156,       189.717,       95.2051,            0.,NA,NA,"",   1.24296E+06,   1.42559E+06,   1.42559E+06
C:/temp/Job-5.odb,Step-1,Increment      1: Step Time =    1.000,"P-5-1",           157,       178.872,       95.8035,            0.,NA,NA,"",   651.354E+03,   733.088E+03,   733.088E+03
C:/temp/Job-5.odb,Step-1,Increment      1: Step Time =    1.000,"P-5-1",           158,       169.210,       91.6758,            0.,NA,NA,"",   652.743E+03,   106.937E+03,   106.937E+03
C:/temp/Job-5.odb,Step-1,Increment      1: Step Time =    1.000,"P-5-1",           159,       159.493,       93.8994,            0.,NA,NA,"",   1.09257E+06,  -1.08038E+06,  -1.08038E+06
C:/temp/Job-5.odb,Step-1,Increment      1: Step Time =    1.000,"P-5-1",           160,       158.276,       71.3672,            0.,NA,NA,"",   1.53757E+06,   1.06180E+06,   1.06180E+06
C:/temp/Job-5.odb,Step-1,Increment      1: Step Time =    1.000,"P-5-1",           161,       168.000,       74.8778,            0.,NA,NA,"",   1.44857E+06,   1.12777E+06,   1.12777E+06
C:/temp/Job-5.odb,Step-1,Increment      1: Step Time =    1.000,"P-5-1",           162,       178.680,       75.5612,            0.,NA,NA,"",   1.28614E+06,   1.27957E+06,   1.27957E+06
C:/temp/Job-5.odb,Step-1,Increment      1: Step Time =    1.000,"P-5-1",           163,       189.978,       75.1980,            0.,NA,NA,"",   1.20835E+06,   1.38221E+06,   1.38221E+06
C:/temp/Job-5.odb,Step-1,Increment      1: Step Time =    1.000,"P-5-1",           164,       147.831,       61.7085,            0.,NA,NA,"",   1.76610E+06,   1.52701E+06,   1.52701E+06
C:/temp/Job-5.odb,Step-1,Increment      1: Step Time =    1.000,"P-5-1",           165,       159.844,       62.4051,            0.,NA,NA,"",   1.86421E+06,   1.50698E+06,   1.50698E+06
C:/temp/Job-5.odb,Step-1,Increment      1: Step Time =    1.000,"P-5-1",           166,       169.148,       66.6581,            0.,NA,NA,"",   1.64776E+06,   1.38742E+06,   1.38742E+06
C:/temp/Job-5.odb,Step-1,Increment      1: Step Time =    1.000,"P-5-1",           167,       179.739,       65.0682,            0.,NA,NA,"",   1.40833E+06,   1.39349E+06,   1.39349E+06
C:/temp/Job-5.odb,Step-1,Increment      1: Step Time =    1.000,"P-5-1",           168,       189.965,       66.2534,            0.,NA,NA,"",   1.14457E+06,   1.29988E+06,   1.29988E+06
C:/temp/Job-5.odb,Step-1,Increment      1: Step Time =    1.000,"P-5-1",           169,       136.130,       50.9461,            0.,NA,NA,"",   2.30266E+06,   2.30973E+06,   2.30973E+06
C:/temp/Job-5.odb,Step-1,Increment      1: Step Time =    1.000,"P-5-1",           170,       145.545,       52.4210,            0.,NA,NA,"",   2.05646E+06,   1.90968E+06,   1.90968E+06
C:/temp/Job-5.odb,Step-1,Increment      1: Step Time =    1.000,"P-5-1",           171,       154.797,       51.6562,            0.,NA,NA,"",   1.97833E+06,   1.73598E+06,   1.73598E+06
C:/temp/Job-5.odb,Step-1,Increment      1: Step Time =    1.000,"P-5-1",           172,       168.174,       54.4298,            0.,NA,NA,"",   1.73196E+06,   1.53869E+06,   1.53869E+06
C:/temp/Job-5.odb,Step-1,Increment      1: Step Time =    1.000,"P-5-1",           173,       177.517,       53.1954,            0.,NA,NA,"",   1.46478E+06,   1.40594E+06,   1.40594E+06
C:/temp/Job-5.odb,Step-1,Increment      1: Step Time =    1.000,"P-5-1",           174,       187.217,       50.9198,            0.,NA,NA,"",   1.14873E+06,   1.22311E+06,   1.22311E+06
C:/temp/Job-5.odb,Step-1,Increment      1: Step Time =    1.000,"P-5-1",           175,       11.1296,       46.3688,            0.,NA,NA,"",   949.677E+03,   1.02150E+06,   1.02150E+06
C:/temp/Job-5.odb,Step-1,Increment      1: Step Time =    1.000,"P-5-1",           176,       20.9164,       43.9030,            0.,NA,NA,"",   1.14758E+06,   1.16318E+06,   1.16318E+06
C:/temp/Job-5.odb,Step-1,Increment      1: Step Time =    1.000,"P-5-1",           177,       29.8963,       41.3502,            0.,NA,NA,"",   1.36097E+06,   1.31339E+06,   1.31339E+06
C:/temp/Job-5.odb,Step-1,Increment      1: Step Time =    1.000,"P-5-1",           178,       39.1543,       40.3971,            0.,NA,NA,"",   1.55754E+06,   1.43849E+06,   1.43849E+06
C:/temp/Job-5.odb,Step-1,Increment      1: Step Time =    1.000,"P-5-1",           179,       53.4945,       40.8649,            0.,NA,NA,"",   1.81195E+06,   1.62091E+06,   1.62091E+06
C:/temp/Job-5.odb,Step-1,Increment      1: Step Time =    1.000,"P-5-1",           180,       62.8124,       40.8157,            0.,NA,NA,"",   2.00325E+06,   1.82194E+06,   1.82194E+06
C:/temp/Job-5.odb,Step-1,Increment      1: Step Time =    1.000,"P-5-1",           181,       68.8092,       40.0536,            0.,NA,NA,"",   2.10852E+06,   1.97493E+06,   1.97493E+06
C:/temp/Job-5.odb,Step-1,Increment      1: Step Time =    1.000,"P-5-1",           182,       84.7611,       41.7015,            0.,NA,NA,"",   2.61512E+06,   2.67356E+06,   2.67356E+06
C:/temp/Job-5.odb,Step-1,Increment      1: Step Time =    1.000,"P-5-1",           183,       94.4122,       40.7453,            0.,NA,NA,"",   3.02785E+06,   3.15890E+06,   3.15890E+06
C:/temp/Job-5.odb,Step-1,Increment      1: Step Time =    1.000,"P-5-1",           184,       114.840,       41.0701,            0.,NA,NA,"",   2.94723E+06,   3.12983E+06,   3.12983E+06
C:/temp/Job-5.odb,Step-1,Increment      1: Step Time =    1.000,"P-5-1",           185,       128.448,       42.5008,            0.,NA,NA,"",   2.42676E+06,   2.52102E+06,   2.52102E+06
C:/temp/Job-5.odb,Step-1,Increment      1: Step Time =    1.000,"P-5-1",           186,       138.512,       41.6710,            0.,NA,NA,"",   2.12750E+06,   2.10294E+06,   2.10294E+06
C:/temp/Job-5.odb,Step-1,Increment      1: Step Time =    1.000,"P-5-1",           187,       146.743,       38.8410,            0.,NA,NA,"",   1.94114E+06,   1.84259E+06,   1.84259E+06
C:/temp/Job-5.odb,Step-1,Increment      1: Step Time =    1.000,"P-5-1",           188,       157.392,       39.1197,            0.,NA,NA,"",   1.77656E+06,   1.63870E+06,   1.63870E+06
C:/temp/Job-5.odb,Step-1,Increment      1: Step Time =    1.000,"P-5-1",           189,       169.550,       42.0887,            0.,NA,NA,"",   1.56231E+06,   1.45574E+06,   1.45574E+06
C:/temp/Job-5.odb,Step-1,Increment      1: Step Time =    1.000,"P-5-1",           190,       178.895,       36.9731,            0.,NA,NA,"",   1.26563E+06,   1.24943E+06,   1.24943E+06
C:/temp/Job-5.odb,Step-1,Increment      1: Step Time =    1.000,"P-5-1",           191,       61.7796,       52.6611,            0.,NA,NA,"",   1.37877E+06,   1.20878E+06,   1.20878E+06
C:/temp/Job-5.odb,Step-1,Increment      1: Step Time =    1.000,"P-5-1",           192,       52.4653,       54.8514,            0.,NA,NA,"",   1.17736E+06,   963.012E+03,   963.012E+03
C:/temp/Job-5.odb,Step-1,Increment      1: Step Time =    1.000,"P-5-1",           193,       39.3347,       52.7716,            0.,NA,NA,"",   1.11234E+06,   974.980E+03,   974.980E+03
C:/temp/Job-5.odb,Step-1,Increment      1: Step Time =    1.000,"P-5-1",           194,       30.2059,       52.8789,            0.,NA,NA,"",   965.564E+03,   911.607E+03,   911.607E+03
C:/temp/Job-5.odb,Step-1,Increment      1: Step Time =    1.000,"P-5-1",           195,       19.3596,       51.4410,            0.,NA,NA,"",   870.877E+03,   893.879E+03,   893.879E+03
C:/temp/Job-5.odb,Step-1,Increment      1: Step Time =    1.000,"P-5-1",           196,       9.42181,       51.6231,            0.,NA,NA,"",   781.778E+03,   849.328E+03,   849.328E+03
C:/temp/Job-5.odb,Step-1,Increment      1: Step Time =    1.000,"P-5-1",           197,       50.7568,       64.0458,            0.,NA,NA,"",   660.925E+03,   77.2553E+03,   77.2553E+03
C:/temp/Job-5.odb,Step-1,Increment      1: Step Time =    1.000,"P-5-1",           198,       40.9693,       61.9122,            0.,NA,NA,"",   742.124E+03,   572.378E+03,   572.378E+03
C:/temp/Job-5.odb,Step-1,Increment      1: Step Time =    1.000,"P-5-1",           199,       29.7259,       63.4174,            0.,NA,NA,"",   574.134E+03,   519.456E+03,   519.456E+03
C:/temp/Job-5.odb,Step-1,Increment      1: Step Time =    1.000,"P-5-1",           200,       21.0909,       61.5185,            0.,NA,NA,"",   575.587E+03,   578.312E+03,   578.312E+03
C:/temp/Job-5.odb,Step-1,Increment      1: Step Time =    1.000,"P-5-1",           201,       8.77285,       65.6053,            0.,NA,NA,"",   413.645E+03,   450.351E+03,   450.351E+03
C:/temp/Job-5.odb,Step-1,Increment      1: Step Time =    1.000,"P-5-1",           202,       41.7852,       72.5737,            0.,NA,NA,"",   403.097E+03,  -321.552E+03,  -321.552E+03
C:/temp/Job-5.odb,Step-1,Increment      1: Step Time =    1.000,"P-5-1",           203,       30.1167,       73.1294,            0.,NA,NA,"",   274.059E+03,   126.653E+03,   126.653E+03
C:/temp/Job-5.odb,Step-1,Increment      1: Step Time =    1.000,"P-5-1",           204,       19.0395,       74.1688,            0.,NA,NA,"",   214.819E+03,   215.558E+03,   215.558E+03
C:/temp/Job-5.odb,Step-1,Increment      1: Step Time =    1.000,"P-5-1",           205,       9.49873,       75.1199,            0.,NA,NA,"",   221.340E+03,   235.568E+03,   235.568E+03
C:/temp/Job-5.odb,Step-1,Increment      1: Step Time =    1.000,"P-5-1",           206,       40.9780,       85.1589,            0.,NA,NA,"",   432.584E+03,  -470.245E+03,  -470.245E+03
C:/temp/Job-5.odb,Step-1,Increment      1: Step Time =    1.000,"P-5-1",           207,       34.8481,       83.6262,            0.,NA,NA,"",   226.413E+03,  -250.888E+03,  -250.888E+03
C:/temp/Job-5.odb,Step-1,Increment      1: Step Time =    1.000,"P-5-1",           208,       24.4274,       84.2125,            0.,NA,NA,"",   97.0678E+03,  -61.0250E+03,  -61.0250E+03
C:/temp/Job-5.odb,Step-1,Increment      1: Step Time =    1.000,"P-5-1",           209,       10.2767,       85.2349,            0.,NA,NA,"",   127.686E+03,   100.493E+03,   100.493E+03
C:/temp/Job-5.odb,Step-1,Increment      1: Step Time =    1.000,"P-5-1",           210,       31.8993,       96.6855,            0.,NA,NA,"",   208.062E+03,  -232.050E+03,  -232.050E+03
C:/temp/Job-5.odb,Step-1,Increment      1: Step Time =    1.000,"P-5-1",           211,       23.3861,       90.0415,            0.,NA,NA,"",   108.850E+03,  -117.404E+03,  -117.404E+03
C:/temp/Job-5.odb,Step-1,Increment      1: Step Time =    1.000,"P-5-1",           212,       9.64872,       95.4385,            0.,NA,NA,"",   134.949E+03,  -100.134E+03,  -100.134E+03
C:/temp/Job-5.odb,Step-1,Increment      1: Step Time =    1.000,"P-5-1",           213,       41.5507,       115.142,            0.,NA,NA,"",   446.645E+03,  -480.652E+03,  -480.652E+03
C:/temp/Job-5.odb,Step-1,Increment      1: Step Time =    1.000,"P-5-1",           214,       31.9074,       114.843,            0.,NA,NA,"",   166.892E+03,  -187.498E+03,  -187.498E+03
C:/temp/Job-5.odb,Step-1,Increment      1: Step Time =    1.000,"P-5-1",           215,       22.1621,       116.276,            0.,NA,NA,"",   84.0657E+03,  -35.1158E+03,  -35.1158E+03
C:/temp/Job-5.odb,Step-1,Increment      1: Step Time =    1.000,"P-5-1",           216,       10.0510,       115.241,            0.,NA,NA,"",   127.229E+03,   102.346E+03,   102.346E+03
C:/temp/Job-5.odb,Step-1,Increment      1: Step Time =    1.000,"P-5-1",           217,       9.65781,       105.369,            0.,NA,NA,"",   133.987E+03,  -97.6735E+03,  -97.6735E+03
C:/temp/Job-5.odb,Step-1,Increment      1: Step Time =    1.000,"P-5-1",           218,       18.6852,       105.274,            0.,NA,NA,"",   137.656E+03,  -127.149E+03,  -127.149E+03
C:/temp/Job-5.odb,Step-1,Increment      1: Step Time =    1.000,"P-5-1",           219,       28.7670,       103.246,            0.,NA,NA,"",   153.320E+03,  -167.858E+03,  -167.858E+03
C:/temp/Job-5.odb,Step-1,Increment      1: Step Time =    1.000,"P-5-1",           220,       40.9132,       105.477,            0.,NA,NA,"",   516.081E+03,  -559.275E+03,  -559.275E+03
C:/temp/Job-5.odb,Step-1,Increment      1: Step Time =    1.000,"P-5-1",           221,       39.5942,       130.906,            0.,NA,NA,"",   459.169E+03,   41.0876E+03,   41.0876E+03
C:/temp/Job-5.odb,Step-1,Increment      1: Step Time =    1.000,"P-5-1",           222,       31.1473,       126.194,            0.,NA,NA,"",   261.615E+03,   40.3194E+03,   40.3194E+03
C:/temp/Job-5.odb,Step-1,Increment      1: Step Time =    1.000,"P-5-1",           223,       21.0723,       126.405,            0.,NA,NA,"",   221.827E+03,   218.135E+03,   218.135E+03
C:/temp/Job-5.odb,Step-1,Increment      1: Step Time =    1.000,"P-5-1",           224,       9.46178,       125.032,            0.,NA,NA,"",   220.216E+03,   234.096E+03,   234.096E+03
C:/temp/Job-5.odb,Step-1,Increment      1: Step Time =    1.000,"P-5-1",           225,       52.5299,       138.084,            0.,NA,NA,"",   756.594E+03,   351.155E+03,   351.155E+03
C:/temp/Job-5.odb,Step-1,Increment      1: Step Time =    1.000,"P-5-1",           226,       39.8098,       137.246,            0.,NA,NA,"",   697.165E+03,   538.140E+03,   538.140E+03
C:/temp/Job-5.odb,Step-1,Increment      1: Step Time =    1.000,"P-5-1",           227,       30.6076,       138.173,            0.,NA,NA,"",   643.059E+03,   576.648E+03,   576.648E+03
C:/temp/Job-5.odb,Step-1,Increment      1: Step Time =    1.000,"P-5-1",           228,       20.7090,       133.056,            0.,NA,NA,"",   394.825E+03,   397.947E+03,   397.947E+03
C:/temp/Job-5.odb,Step-1,Increment      1: Step Time =    1.000,"P-5-1",           229,       9.79337,       134.401,            0.,NA,NA,"",   408.194E+03,   444.047E+03,   444.047E+03
C:/temp/Job-5.odb,Step-1,Increment      1: Step Time =    1.000,"P-5-1",           230,       189.890,       10.1810,            0.,NA,NA,"",   1.00502E+06,   1.00525E+06,   1.00525E+06
C:/temp/Job-5.odb,Step-1,Increment      1: Step Time =    1.000,"P-5-1",           231,       179.618,       10.2647,            0.,NA,NA,"",   1.02064E+06,   1.01923E+06,   1.01923E+06
C:/temp/Job-5.odb,Step-1,Increment      1: Step Time =    1.000,"P-5-1",           232,       169.557,       9.82786,            0.,NA,NA,"",   1.03654E+06,   1.02834E+06,   1.02834E+06
C:/temp/Job-5.odb,Step-1,Increment      1: Step Time =    1.000,"P-5-1",           233,       159.567,       9.58836,            0.,NA,NA,"",   1.03326E+06,   1.01900E+06,   1.01900E+06
C:/temp/Job-5.odb,Step-1,Increment      1: Step Time =    1.000,"P-5-1",           234,       149.772,       9.68508,            0.,NA,NA,"",   1.00885E+06,   991.880E+03,   991.880E+03
C:/temp/Job-5.odb,Step-1,Increment      1: Step Time =    1.000,"P-5-1",           235,       135.071,       9.77926,            0.,NA,NA,"",   922.239E+03,   914.725E+03,   914.725E+03
C:/temp/Job-5.odb,Step-1,Increment      1: Step Time =    1.000,"P-5-1",           236,       125.119,       10.2144,            0.,NA,NA,"",   856.975E+03,   873.994E+03,   873.994E+03
C:/temp/Job-5.odb,Step-1,Increment      1: Step Time =    1.000,"P-5-1",           237,       115.068,       10.7736,            0.,NA,NA,"",   849.293E+03,   883.013E+03,   883.013E+03
C:/temp/Job-5.odb,Step-1,Increment      1: Step Time =    1.000,"P-5-1",           238,       104.891,       10.5039,            0.,NA,NA,"",   925.814E+03,   956.887E+03,   956.887E+03
C:/temp/Job-5.odb,Step-1,Increment      1: Step Time =    1.000,"P-5-1",           239,       94.8963,       10.1818,            0.,NA,NA,"",   1.11000E+06,   1.11197E+06,   1.11197E+06
C:/temp/Job-5.odb,Step-1,Increment      1: Step Time =    1.000,"P-5-1",           240,       85.0852,       9.73682,            0.,NA,NA,"",   1.33640E+06,   1.31311E+06,   1.31311E+06
C:/temp/Job-5.odb,Step-1,Increment      1: Step Time =    1.000,"P-5-1",           241,       75.3830,       9.42249,            0.,NA,NA,"",   1.56127E+06,   1.52447E+06,   1.52447E+06
C:/temp/Job-5.odb,Step-1,Increment      1: Step Time =    1.000,"P-5-1",           242,       66.3914,       9.80432,            0.,NA,NA,"",   1.77104E+06,   1.72939E+06,   1.72939E+06
C:/temp/Job-5.odb,Step-1,Increment      1: Step Time =    1.000,"P-5-1",           243,       51.5586,       11.8259,            0.,NA,NA,"",   1.98561E+06,   1.94376E+06,   1.94376E+06
C:/temp/Job-5.odb,Step-1,Increment      1: Step Time =    1.000,"P-5-1",           244,       39.4811,       8.90696,            0.,NA,NA,"",   2.11701E+06,   2.10023E+06,   2.10023E+06
C:/temp/Job-5.odb,Step-1,Increment      1: Step Time =    1.000,"P-5-1",           245,       30.6743,       8.61811,            0.,NA,NA,"",   2.18835E+06,   2.18063E+06,   2.18063E+06
C:/temp/Job-5.odb,Step-1,Increment      1: Step Time =    1.000,"P-5-1",           246,       21.0177,       10.2960,            0.,NA,NA,"",   2.20266E+06,   2.21190E+06,   2.21190E+06
C:/temp/Job-5.odb,Step-1,Increment      1: Step Time =    1.000,"P-5-1",           247,       10.2183,       10.0513,            0.,NA,NA,"",   2.27878E+06,   2.34909E+06,   2.34909E+06
C:/temp/Job-5.odb,Step-1,Increment      1: Step Time =    1.000,"P-5-1",           248,       190.592,       24.8883,            0.,NA,NA,"",   1.02114E+06,   1.03521E+06,   1.03521E+06
C:/temp/Job-5.odb,Step-1,Increment      1: Step Time =    1.000,"P-5-1",           249,       178.843,       21.7778,            0.,NA,NA,"",   1.11712E+06,   1.11165E+06,   1.11165E+06
C:/temp/Job-5.odb,Step-1,Increment      1: Step Time =    1.000,"P-5-1",           250,       168.675,       19.2894,            0.,NA,NA,"",   1.19007E+06,   1.16324E+06,   1.16324E+06
C:/temp/Job-5.odb,Step-1,Increment      1: Step Time =    1.000,"P-5-1",           251,       159.289,       23.5641,            0.,NA,NA,"",   1.37298E+06,   1.31702E+06,   1.31702E+06
C:/temp/Job-5.odb,Step-1,Increment      1: Step Time =    1.000,"P-5-1",           252,       144.865,       20.7922,            0.,NA,NA,"",   1.38933E+06,   1.35417E+06,   1.35417E+06
C:/temp/Job-5.odb,Step-1,Increment      1: Step Time =    1.000,"P-5-1",           253,       134.832,       18.9191,            0.,NA,NA,"",   1.32323E+06,   1.32070E+06,   1.32070E+06
C:/temp/Job-5.odb,Step-1,Increment      1: Step Time =    1.000,"P-5-1",           254,       126.378,       19.8797,            0.,NA,NA,"",   1.36195E+06,   1.40990E+06,   1.40990E+06
C:/temp/Job-5.odb,Step-1,Increment      1: Step Time =    1.000,"P-5-1",           255,       115.002,       22.8791,            0.,NA,NA,"",   1.52636E+06,   1.63664E+06,   1.63664E+06
C:/temp/Job-5.odb,Step-1,Increment      1: Step Time =    1.000,"P-5-1",           256,       104.086,       20.6644,            0.,NA,NA,"",   1.50318E+06,   1.59213E+06,   1.59213E+06
C:/temp/Job-5.odb,Step-1,Increment      1: Step Time =    1.000,"P-5-1",           257,       94.2136,       21.1741,            0.,NA,NA,"",   1.71183E+06,   1.75371E+06,   1.75371E+06
C:/temp/Job-5.odb,Step-1,Increment      1: Step Time =    1.000,"P-5-1",           258,       84.6572,       18.9219,            0.,NA,NA,"",   1.78450E+06,   1.75573E+06,   1.75573E+06
C:/temp/Job-5.odb,Step-1,Increment      1: Step Time =    1.000,"P-5-1",           259,       74.7769,       19.8084,            0.,NA,NA,"",   1.94094E+06,   1.86133E+06,   1.86133E+06
C:/temp/Job-5.odb,Step-1,Increment      1: Step Time =    1.000,"P-5-1",           260,       66.3576,       21.1057,            0.,NA,NA,"",   2.01162E+06,   1.90304E+06,   1.90304E+06
C:/temp/Job-5.odb,Step-1,Increment      1: Step Time =    1.000,"P-5-1",           261,       53.3807,       21.4410,            0.,NA,NA,"",   1.99880E+06,   1.89800E+06,   1.89800E+06
C:/temp/Job-5.odb,Step-1,Increment      1: Step Time =    1.000,"P-5-1",           262,       41.3230,       18.9563,            0.,NA,NA,"",   1.98903E+06,   1.92943E+06,   1.92943E+06
C:/temp/Job-5.odb,Step-1,Increment      1: Step Time =    1.000,"P-5-1",           263,       27.9545,       21.3463,            0.,NA,NA,"",   1.92467E+06,   1.90878E+06,   1.90878E+06
C:/temp/Job-5.odb,Step-1,Increment      1: Step Time =    1.000,"P-5-1",           264,       20.8631,       21.4044,            0.,NA,NA,"",   1.88040E+06,   1.90716E+06,   1.90716E+06
C:/temp/Job-5.odb,Step-1,Increment      1: Step Time =    1.000,"P-5-1",           265,       11.1905,       20.9334,            0.,NA,NA,"",   1.78255E+06,   1.88545E+06,   1.88545E+06
C:/temp/Job-5.odb,Step-1,Increment      1: Step Time =    1.000,"P-5-1",           266,       191.083,       34.1378,            0.,NA,NA,"",   1.01459E+06,   1.05619E+06,   1.05619E+06
C:/temp/Job-5.odb,Step-1,Increment      1: Step Time =    1.000,"P-5-1",           267,       182.247,       34.1333,            0.,NA,NA,"",   1.16170E+06,   1.17040E+06,   1.17040E+06
C:/temp/Job-5.odb,Step-1,Increment      1: Step Time =    1.000,"P-5-1",           268,       163.801,       30.5643,            0.,NA,NA,"",   1.47734E+06,   1.40013E+06,   1.40013E+06
C:/temp/Job-5.odb,Step-1,Increment      1: Step Time =    1.000,"P-5-1",           269,       159.645,       32.6123,            0.,NA,NA,"",   1.59984E+06,   1.50183E+06,   1.50183E+06
C:/temp/Job-5.odb,Step-1,Increment      1: Step Time =    1.000,"P-5-1",           270,       147.718,       30.9452,            0.,NA,NA,"",   1.71141E+06,   1.63937E+06,   1.63937E+06
C:/temp/Job-5.odb,Step-1,Increment      1: Step Time =    1.000,"P-5-1",           271,       137.176,       33.5774,            0.,NA,NA,"",   1.91568E+06,   1.91284E+06,   1.91284E+06
C:/temp/Job-5.odb,Step-1,Increment      1: Step Time =    1.000,"P-5-1",           272,       128.990,       32.5138,            0.,NA,NA,"",   1.93051E+06,   1.99970E+06,   1.99970E+06
C:/temp/Job-5.odb,Step-1,Increment      1: Step Time =    1.000,"P-5-1",           273,       117.207,       33.6240,            0.,NA,NA,"",   2.18228E+06,   2.34283E+06,   2.34283E+06
C:/temp/Job-5.odb,Step-1,Increment      1: Step Time =    1.000,"P-5-1",           274,       103.536,       30.9083,            0.,NA,NA,"",   2.16168E+06,   2.31956E+06,   2.31956E+06
C:/temp/Job-5.odb,Step-1,Increment      1: Step Time =    1.000,"P-5-1",           275,       95.3040,       27.5908,            0.,NA,NA,"",   2.01902E+06,   2.10803E+06,   2.10803E+06
C:/temp/Job-5.odb,Step-1,Increment      1: Step Time =    1.000,"P-5-1",           276,       84.0579,       32.6836,            0.,NA,NA,"",   2.31041E+06,   2.31891E+06,   2.31891E+06
C:/temp/Job-5.odb,Step-1,Increment      1: Step Time =    1.000,"P-5-1",           277,       73.1225,       31.6167,            0.,NA,NA,"",   2.20340E+06,   2.10167E+06,   2.10167E+06
C:/temp/Job-5.odb,Step-1,Increment      1: Step Time =    1.000,"P-5-1",           278,       62.4261,       29.9520,            0.,NA,NA,"",   2.09328E+06,   1.93710E+06,   1.93710E+06
C:/temp/Job-5.odb,Step-1,Increment      1: Step Time =    1.000,"P-5-1",           279,       54.2238,       30.7152,            0.,NA,NA,"",   1.98705E+06,   1.83039E+06,   1.83039E+06
C:/temp/Job-5.odb,Step-1,Increment      1: Step Time =    1.000,"P-5-1",           280,       43.7929,       27.6859,            0.,NA,NA,"",   1.90600E+06,   1.80076E+06,   1.80076E+06
C:/temp/Job-5.odb,Step-1,Increment      1: Step Time =    1.000,"P-5-1",           281,       32.6473,       27.1375,            0.,NA,NA,"",   1.80775E+06,   1.75778E+06,   1.75778E+06
C:/temp/Job-5.odb,Step-1,Increment      1: Step Time =    1.000,"P-5-1",           282,       22.8060,       30.5628,            0.,NA,NA,"",   1.60973E+06,   1.62028E+06,   1.62028E+06
C:/temp/Job-5.odb,Step-1,Increment      1: Step Time =    1.000,"P-5-1",           283,       9.68527,       35.7007,            0.,NA,NA,"",   1.25833E+06,   1.36054E+06,   1.36054E+06
C:/temp/Job-5.odb,Step-1,Increment      1: Step Time =    1.000,"P-5-1",           284,       190.191,       169.506,            0.,NA,NA,"",   1.03030E+06,   1.05684E+06,   1.05684E+06
C:/temp/Job-5.odb,Step-1,Increment      1: Step Time =    1.000,"P-5-1",           285,       180.827,       168.587,            0.,NA,NA,"",   1.17193E+06,   1.17089E+06,   1.17089E+06
C:/temp/Job-5.odb,Step-1,Increment      1: Step Time =    1.000,"P-5-1",           286,       169.672,       165.277,            0.,NA,NA,"",   1.44205E+06,   1.37216E+06,   1.37216E+06
C:/temp/Job-5.odb,Step-1,Increment      1: Step Time =    1.000,"P-5-1",           287,       157.089,       169.564,            0.,NA,NA,"",   1.56794E+06,   1.48350E+06,   1.48350E+06
C:/temp/Job-5.odb,Step-1,Increment      1: Step Time =    1.000,"P-5-1",           288,       146.082,       170.161,            0.,NA,NA,"",   1.68408E+06,   1.62248E+06,   1.62248E+06
C:/temp/Job-5.odb,Step-1,Increment      1: Step Time =    1.000,"P-5-1",           289,       137.323,       169.035,            0.,NA,NA,"",   1.80698E+06,   1.80265E+06,   1.80265E+06
C:/temp/Job-5.odb,Step-1,Increment      1: Step Time =    1.000,"P-5-1",           290,       126.756,       168.242,            0.,NA,NA,"",   1.92824E+06,   2.02036E+06,   2.02036E+06
C:/temp/Job-5.odb,Step-1,Increment      1: Step Time =    1.000,"P-5-1",           291,       106.181,       169.307,            0.,NA,NA,"",   2.10926E+06,   2.26930E+06,   2.26930E+06
C:/temp/Job-5.odb,Step-1,Increment      1: Step Time =    1.000,"P-5-1",           292,       95.4938,       169.464,            0.,NA,NA,"",   2.19613E+06,   2.30390E+06,   2.30390E+06
C:/temp/Job-5.odb,Step-1,Increment      1: Step Time =    1.000,"P-5-1",           293,       84.2553,       168.623,            0.,NA,NA,"",   2.26611E+06,   2.27831E+06,   2.27831E+06
C:/temp/Job-5.odb,Step-1,Increment      1: Step Time =    1.000,"P-5-1",           294,       71.9004,       168.686,            0.,NA,NA,"",   2.18882E+06,   2.07493E+06,   2.07493E+06
C:/temp/Job-5.odb,Step-1,Increment      1: Step Time =    1.000,"P-5-1",           295,       62.5445,       170.847,            0.,NA,NA,"",   2.08883E+06,   1.93367E+06,   1.93367E+06
C:/temp/Job-5.odb,Step-1,Increment      1: Step Time =    1.000,"P-5-1",           296,       52.4234,       169.537,            0.,NA,NA,"",   1.97074E+06,   1.82004E+06,   1.82004E+06
C:/temp/Job-5.odb,Step-1,Increment      1: Step Time =    1.000,"P-5-1",           297,       44.7851,       168.283,            0.,NA,NA,"",   1.86074E+06,   1.72868E+06,   1.72868E+06
C:/temp/Job-5.odb,Step-1,Increment      1: Step Time =    1.000,"P-5-1",           298,       33.4690,       167.516,            0.,NA,NA,"",   1.69288E+06,   1.62532E+06,   1.62532E+06
C:/temp/Job-5.odb,Step-1,Increment      1: Step Time =    1.000,"P-5-1",           299,       17.4637,       168.064,            0.,NA,NA,"",   1.49061E+06,   1.54259E+06,   1.54259E+06
C:/temp/Job-5.odb,Step-1,Increment      1: Step Time =    1.000,"P-5-1",           300,       9.27378,       168.874,            0.,NA,NA,"",   1.39553E+06,   1.50876E+06,   1.50876E+06
C:/temp/Job-5.odb,Step-1,Increment      1: Step Time =    1.000,"P-5-1",           301,       189.759,       179.621,            0.,NA,NA,"",   1.02327E+06,   1.02975E+06,   1.02975E+06
C:/temp/Job-5.odb,Step-1,Increment      1: Step Time =    1.000,"P-5-1",           302,       178.505,       178.872,            0.,NA,NA,"",   1.11825E+06,   1.11133E+06,   1.11133E+06
C:/temp/Job-5.odb,Step-1,Increment      1: Step Time =    1.000,"P-5-1",           303,       165.638,       181.825,            0.,NA,NA,"",   1.19162E+06,   1.16305E+06,   1.16305E+06
C:/temp/Job-5.odb,Step-1,Increment      1: Step Time =    1.000,"P-5-1",           304,       162.060,       178.656,            0.,NA,NA,"",   1.28912E+06,   1.24597E+06,   1.24597E+06
C:/temp/Job-5.odb,Step-1,Increment      1: Step Time =    1.000,"P-5-1",           305,       146.537,       177.800,            0.,NA,NA,"",   1.43199E+06,   1.38780E+06,   1.38780E+06
C:/temp/Job-5.odb,Step-1,Increment      1: Step Time =    1.000,"P-5-1",           306,       133.550,       178.189,            0.,NA,NA,"",   1.44233E+06,   1.45482E+06,   1.45482E+06
C:/temp/Job-5.odb,Step-1,Increment      1: Step Time =    1.000,"P-5-1",           307,       124.593,       182.188,            0.,NA,NA,"",   1.24198E+06,   1.28778E+06,   1.28778E+06
C:/temp/Job-5.odb,Step-1,Increment      1: Step Time =    1.000,"P-5-1",           308,       115.844,       180.301,            0.,NA,NA,"",   1.33884E+06,   1.42288E+06,   1.42288E+06
C:/temp/Job-5.odb,Step-1,Increment      1: Step Time =    1.000,"P-5-1",           309,       105.721,       179.577,            0.,NA,NA,"",   1.47153E+06,   1.56363E+06,   1.56363E+06
C:/temp/Job-5.odb,Step-1,Increment      1: Step Time =    1.000,"P-5-1",           310,       95.3321,       179.435,            0.,NA,NA,"",   1.66168E+06,   1.71025E+06,   1.71025E+06
C:/temp/Job-5.odb,Step-1,Increment      1: Step Time =    1.000,"P-5-1",           311,       85.2749,       179.470,            0.,NA,NA,"",   1.83565E+06,   1.81527E+06,   1.81527E+06
C:/temp/Job-5.odb,Step-1,Increment      1: Step Time =    1.000,"P-5-1",           312,       75.5272,       178.330,            0.,NA,NA,"",   1.99694E+06,   1.91765E+06,   1.91765E+06
C:/temp/Job-5.odb,Step-1,Increment      1: Step Time =    1.000,"P-5-1",           313,       64.4399,       180.530,            0.,NA,NA,"",   1.99555E+06,   1.89148E+06,   1.89148E+06
C:/temp/Job-5.odb,Step-1,Increment      1: Step Time =    1.000,"P-5-1",           314,       54.9066,       179.680,            0.,NA,NA,"",   2.00342E+06,   1.90215E+06,   1.90215E+06
C:/temp/Job-5.odb,Step-1,Increment      1: Step Time =    1.000,"P-5-1",           315,       40.7063,       176.676,            0.,NA,NA,"",   1.93334E+06,   1.85830E+06,   1.85830E+06
C:/temp/Job-5.odb,Step-1,Increment      1: Step Time =    1.000,"P-5-1",           316,       31.4183,       180.657,            0.,NA,NA,"",   1.97463E+06,   1.94543E+06,   1.94543E+06
C:/temp/Job-5.odb,Step-1,Increment      1: Step Time =    1.000,"P-5-1",           317,       22.3877,       179.066,            0.,NA,NA,"",   1.90202E+06,   1.91586E+06,   1.91586E+06
C:/temp/Job-5.odb,Step-1,Increment      1: Step Time =    1.000,"P-5-1",           318,       11.4422,       179.106,            0.,NA,NA,"",   1.78116E+06,   1.88215E+06,   1.88215E+06
C:/temp/Job-5.odb,Step-1,Increment      1: Step Time =    1.000,"P-5-1",           319,       189.837,       189.906,            0.,NA,NA,"",   1.00500E+06,   1.00500E+06,   1.00500E+06
C:/temp/Job-5.odb,Step-1,Increment      1: Step Time =    1.000,"P-5-1",           320,       175.121,       190.555,            0.,NA,NA,"",   1.02093E+06,   1.01758E+06,   1.01758E+06
C:/temp/Job-5.odb,Step-1,Increment      1: Step Time =    1.000,"P-5-1",           321,       165.855,       191.063,            0.,NA,NA,"",   1.01996E+06,   1.01175E+06,   1.01175E+06
C:/temp/Job-5.odb,Step-1,Increment      1: Step Time =    1.000,"P-5-1",           322,       156.993,       190.322,            0.,NA,NA,"",   1.02262E+06,   1.00736E+06,   1.00736E+06
C:/temp/Job-5.odb,Step-1,Increment      1: Step Time =    1.000,"P-5-1",           323,       148.935,       187.248,            0.,NA,NA,"",   1.11239E+06,   1.08703E+06,   1.08703E+06
C:/temp/Job-5.odb,Step-1,Increment      1: Step Time =    1.000,"P-5-1",           324,       133.469,       189.876,            0.,NA,NA,"",   917.332E+03,   915.663E+03,   915.663E+03
C:/temp/Job-5.odb,Step-1,Increment      1: Step Time =    1.000,"P-5-1",           325,       124.397,       190.734,            0.,NA,NA,"",   800.058E+03,   815.230E+03,   815.230E+03
C:/temp/Job-5.odb,Step-1,Increment      1: Step Time =    1.000,"P-5-1",           326,       115.002,       190.311,            0.,NA,NA,"",   789.719E+03,   818.650E+03,   818.650E+03
C:/temp/Job-5.odb,Step-1,Increment      1: Step Time =    1.000,"P-5-1",           327,       105.167,       189.884,            0.,NA,NA,"",   895.543E+03,   923.750E+03,   923.750E+03
C:/temp/Job-5.odb,Step-1,Increment      1: Step Time =    1.000,"P-5-1",           328,       95.1103,       189.726,            0.,NA,NA,"",   1.10784E+06,   1.11261E+06,   1.11261E+06
C:/temp/Job-5.odb,Step-1,Increment      1: Step Time =    1.000,"P-5-1",           329,       85.0797,       189.671,            0.,NA,NA,"",   1.36376E+06,   1.34018E+06,   1.34018E+06
C:/temp/Job-5.odb,Step-1,Increment      1: Step Time =    1.000,"P-5-1",           330,       75.0618,       189.585,            0.,NA,NA,"",   1.60434E+06,   1.56260E+06,   1.56260E+06
C:/temp/Job-5.odb,Step-1,Increment      1: Step Time =    1.000,"P-5-1",           331,       64.9617,       189.924,            0.,NA,NA,"",   1.79848E+06,   1.75423E+06,   1.75423E+06
C:/temp/Job-5.odb,Step-1,Increment      1: Step Time =    1.000,"P-5-1",           332,       50.2016,       190.336,            0.,NA,NA,"",   2.00633E+06,   1.97633E+06,   1.97633E+06
C:/temp/Job-5.odb,Step-1,Increment      1: Step Time =    1.000,"P-5-1",           333,       40.3856,       190.453,            0.,NA,NA,"",   2.10281E+06,   2.08337E+06,   2.08337E+06
C:/temp/Job-5.odb,Step-1,Increment      1: Step Time =    1.000,"P-5-1",           334,       30.5093,       190.180,            0.,NA,NA,"",   2.16620E+06,   2.15689E+06,   2.15689E+06
C:/temp/Job-5.odb,Step-1,Increment      1: Step Time =    1.000,"P-5-1",           335,       20.3719,       189.733,            0.,NA,NA,"",   2.21407E+06,   2.22323E+06,   2.22323E+06
C:/temp/Job-5.odb,Step-1,Increment      1: Step Time =    1.000,"P-5-1",           336,       10.3216,       189.842,            0.,NA,NA,"",   2.27678E+06,   2.34673E+06,   2.34673E+06
C:/temp/Job-5.odb,Step-1,Increment      1: Step Time =    1.000,"P-5-1",           337,       95.0011,       150.754,            0.,NA,NA,"",   4.05501E+06,   4.11495E+06,   4.11495E+06
C:/temp/Job-5.odb,Step-1,Increment      1: Step Time =    1.000,"P-5-1",           338,       90.0504,       150.020,            0.,NA,NA,"",   3.55281E+06,   3.60782E+06,   3.60782E+06
C:/temp/Job-5.odb,Step-1,Increment      1: Step Time =    1.000,"P-5-1",           339,       80.4831,       147.118,            0.,NA,NA,"",   2.38101E+06,   2.43067E+06,   2.43067E+06
C:/temp/Job-5.odb,Step-1,Increment      1: Step Time =    1.000,"P-5-1",           340,       75.9588,       144.978,            0.,NA,NA,"",   1.76184E+06,   1.78207E+06,   1.78207E+06
C:/temp/Job-5.odb,Step-1,Increment      1: Step Time =    1.000,"P-5-1",           341,       67.6459,       139.424,            0.,NA,NA,"",   705.179E+03,   664.006E+03,   664.006E+03
C:/temp/Job-5.odb,Step-1,Increment      1: Step Time =    1.000,"P-5-1",           342,       63.9376,       136.062,            0.,NA,NA,"",   437.840E+03,   95.5175E+03,   95.5175E+03
C:/temp/Job-5.odb,Step-1,Increment      1: Step Time =    1.000,"P-5-1",           343,       57.5951,       128.334,            0.,NA,NA,"",   590.487E+03,  -580.005E+03,  -580.005E+03
C:/temp/Job-5.odb,Step-1,Increment      1: Step Time =    1.000,"P-5-1",           344,       55.0220,       124.041,            0.,NA,NA,"",   724.942E+03,  -733.907E+03,  -733.907E+03
C:/temp/Job-5.odb,Step-1,Increment      1: Step Time =    1.000,"P-5-1",           345,       51.1960,       114.805,            0.,NA,NA,"",   848.447E+03,  -864.362E+03,  -864.362E+03
C:/temp/Job-5.odb,Step-1,Increment      1: Step Time =    1.000,"P-5-1",           346,       49.9799,       109.950,            0.,NA,NA,"",   872.849E+03,  -887.443E+03,  -887.443E+03
C:/temp/Job-5.odb,Step-1,Increment      1: Step Time =    1.000,"P-5-1",           347,           49.,          100.,            0.,NA,NA,"",   866.297E+03,  -881.736E+03,  -881.736E+03
C:/temp/Job-5.odb,Step-1,Increment      1: Step Time =    1.000,"P-5-1",           348,       49.9799,       90.0504,            0.,NA,NA,"",   864.324E+03,  -886.585E+03,  -886.585E+03
C:/temp/Job-5.odb,Step-1,Increment      1: Step Time =    1.000,"P-5-1",           349,       51.1960,       85.1955,            0.,NA,NA,"",   880.891E+03,  -896.818E+03,  -896.818E+03
C:/temp/Job-5.odb,Step-1,Increment      1: Step Time =    1.000,"P-5-1",           350,       55.0220,       75.9588,            0.,NA,NA,"",   791.603E+03,  -798.600E+03,  -798.600E+03
C:/temp/Job-5.odb,Step-1,Increment      1: Step Time =    1.000,"P-5-1",           351,       57.5951,       71.6659,            0.,NA,NA,"",   636.391E+03,   -631.46E+03,   -631.46E+03
C:/temp/Job-5.odb,Step-1,Increment      1: Step Time =    1.000,"P-5-1",           352,       63.9376,       63.9376,            0.,NA,NA,"",   441.220E+03,   74.1163E+03,   74.1163E+03
C:/temp/Job-5.odb,Step-1,Increment      1: Step Time =    1.000,"P-5-1",           353,       67.6459,       60.5765,            0.,NA,NA,"",   698.632E+03,   649.796E+03,   649.796E+03
C:/temp/Job-5.odb,Step-1,Increment      1: Step Time =    1.000,"P-5-1",           354,       75.9588,       55.0220,            0.,NA,NA,"",   1.77937E+06,   1.80890E+06,   1.80890E+06
C:/temp/Job-5.odb,Step-1,Increment      1: Step Time =    1.000,"P-5-1",           355,       80.4831,       52.8821,            0.,NA,NA,"",   2.40810E+06,   2.44937E+06,   2.44937E+06
C:/temp/Job-5.odb,Step-1,Increment      1: Step Time =    1.000,"P-5-1",           356,       90.0504,       49.9799,            0.,NA,NA,"",   3.63191E+06,   3.68043E+06,   3.68043E+06
C:/temp/Job-5.odb,Step-1,Increment      1: Step Time =    1.000,"P-5-1",           357,       95.0011,       49.2456,            0.,NA,NA,"",   4.08538E+06,   4.14775E+06,   4.14775E+06
C:/temp/Job-5.odb,Step-1,Increment      1: Step Time =    1.000,"P-5-1",           358,       104.999,       49.2456,            0.,NA,NA,"",   4.45684E+06,   4.53971E+06,   4.53971E+06
C:/temp/Job-5.odb,Step-1,Increment      1: Step Time =    1.000,"P-5-1",           359,       109.950,       49.9799,            0.,NA,NA,"",   4.40025E+06,   4.49925E+06,   4.49925E+06
C:/temp/Job-5.odb,Step-1,Increment      1: Step Time =    1.000,"P-5-1",           360,       119.517,       52.8821,            0.,NA,NA,"",   3.98061E+06,   4.03951E+06,   4.03951E+06
C:/temp/Job-5.odb,Step-1,Increment      1: Step Time =    1.000,"P-5-1",           361,       124.041,       55.0220,            0.,NA,NA,"",   3.56380E+06,   3.61691E+06,   3.61691E+06
C:/temp/Job-5.odb,Step-1,Increment      1: Step Time =    1.000,"P-5-1",           362,       132.354,       60.5765,            0.,NA,NA,"",   2.42914E+06,   2.44872E+06,   2.44872E+06
C:/temp/Job-5.odb,Step-1,Increment      1: Step Time =    1.000,"P-5-1",           363,       136.062,       63.9376,            0.,NA,NA,"",   1.81919E+06,   1.82960E+06,   1.82960E+06
C:/temp/Job-5.odb,Step-1,Increment      1: Step Time =    1.000,"P-5-1",           364,       142.405,       71.6659,            0.,NA,NA,"",   749.810E+03,   601.493E+03,   601.493E+03
C:/temp/Job-5.odb,Step-1,Increment      1: Step Time =    1.000,"P-5-1",           365,       144.978,       75.9588,            0.,NA,NA,"",   699.374E+03,  -185.017E+03,  -185.017E+03
C:/temp/Job-5.odb,Step-1,Increment      1: Step Time =    1.000,"P-5-1",           366,       148.804,       85.1955,            0.,NA,NA,"",   1.50994E+06,  -1.51306E+06,  -1.51306E+06
C:/temp/Job-5.odb,Step-1,Increment      1: Step Time =    1.000,"P-5-1",           367,       150.020,       90.0504,            0.,NA,NA,"",   1.89799E+06,  -1.91747E+06,  -1.91747E+06
C:/temp/Job-5.odb,Step-1,Increment      1: Step Time =    1.000,"P-5-1",           368,          151.,          100.,            0.,NA,NA,"",   2.19871E+06,  -2.22630E+06,  -2.22630E+06
C:/temp/Job-5.odb,Step-1,Increment      1: Step Time =    1.000,"P-5-1",           369,       150.020,       109.950,            0.,NA,NA,"",   1.80820E+06,  -1.83921E+06,  -1.83921E+06
C:/temp/Job-5.odb,Step-1,Increment      1: Step Time =    1.000,"P-5-1",           370,       148.804,       114.805,            0.,NA,NA,"",   1.44080E+06,  -1.45608E+06,  -1.45608E+06
C:/temp/Job-5.odb,Step-1,Increment      1: Step Time =    1.000,"P-5-1",           371,       144.978,       124.041,            0.,NA,NA,"",   586.544E+03,  -486.404E+03,  -486.404E+03
C:/temp/Job-5.odb,Step-1,Increment      1: Step Time =    1.000,"P-5-1",           372,       142.405,       128.334,            0.,NA,NA,"",   610.760E+03,   254.532E+03,   254.532E+03
C:/temp/Job-5.odb,Step-1,Increment      1: Step Time =    1.000,"P-5-1",           373,       136.062,       136.062,            0.,NA,NA,"",   1.73670E+06,   1.74730E+06,   1.74730E+06
C:/temp/Job-5.odb,Step-1,Increment      1: Step Time =    1.000,"P-5-1",           374,       132.354,       139.424,            0.,NA,NA,"",   2.33589E+06,   2.35719E+06,   2.35719E+06
C:/temp/Job-5.odb,Step-1,Increment      1: Step Time =    1.000,"P-5-1",           375,       124.041,       144.978,            0.,NA,NA,"",   3.44402E+06,   3.51966E+06,   3.51966E+06
C:/temp/Job-5.odb,Step-1,Increment      1: Step Time =    1.000,"P-5-1",           376,       119.517,       147.118,            0.,NA,NA,"",   3.92407E+06,   3.98814E+06,   3.98814E+06
C:/temp/Job-5.odb,Step-1,Increment      1: Step Time =    1.000,"P-5-1",           377,       109.950,       150.020,            0.,NA,NA,"",   4.51048E+06,   4.58460E+06,   4.58460E+06
C:/temp/Job-5.odb,Step-1,Increment      1: Step Time =    1.000,"P-5-1",           378,       104.999,       150.754,            0.,NA,NA,"",   4.54170E+06,   4.61433E+06,   4.61433E+06
C:/temp/Job-5.odb,Step-1,Increment      1: Step Time =    1.000,"P-5-1",           379,          195.,            0.,            0.,NA,NA,"",   996.060E+03,   995.497E+03,   995.497E+03
C:/temp/Job-5.odb,Step-1,Increment      1: Step Time =    1.000,"P-5-1",           380,          185.,            0.,            0.,NA,NA,"",   980.005E+03,   980.059E+03,   980.059E+03
C:/temp/Job-5.odb,Step-1,Increment      1: Step Time =    1.000,"P-5-1",           381,          175.,            0.,            0.,NA,NA,"",   961.519E+03,   960.939E+03,   960.939E+03
C:/temp/Job-5.odb,Step-1,Increment      1: Step Time =    1.000,"P-5-1",           382,          165.,            0.,            0.,NA,NA,"",   925.536E+03,   924.003E+03,   924.003E+03
C:/temp/Job-5.odb,Step-1,Increment      1: Step Time =    1.000,"P-5-1",           383,          155.,            0.,            0.,NA,NA,"",   846.460E+03,   844.449E+03,   844.449E+03
C:/temp/Job-5.odb,Step-1,Increment      1: Step Time =    1.000,"P-5-1",           384,          145.,            0.,            0.,NA,NA,"",   715.484E+03,   713.258E+03,   713.258E+03
C:/temp/Job-5.odb,Step-1,Increment      1: Step Time =    1.000,"P-5-1",           385,          135.,            0.,            0.,NA,NA,"",   547.083E+03,   545.409E+03,   545.409E+03
C:/temp/Job-5.odb,Step-1,Increment      1: Step Time =    1.000,"P-5-1",           386,          125.,            0.,            0.,NA,NA,"",   388.597E+03,   390.436E+03,   390.436E+03
C:/temp/Job-5.odb,Step-1,Increment      1: Step Time =    1.000,"P-5-1",           387,          115.,            0.,            0.,NA,NA,"",   315.047E+03,   319.449E+03,   319.449E+03
C:/temp/Job-5.odb,Step-1,Increment      1: Step Time =    1.000,"P-5-1",           388,          105.,            0.,            0.,NA,NA,"",   375.325E+03,   378.627E+03,   378.627E+03
C:/temp/Job-5.odb,Step-1,Increment      1: Step Time =    1.000,"P-5-1",           389,           95.,            0.,            0.,NA,NA,"",   587.363E+03,   586.748E+03,   586.748E+03
C:/temp/Job-5.odb,Step-1,Increment      1: Step Time =    1.000,"P-5-1",           390,           85.,            0.,            0.,NA,NA,"",   912.938E+03,   910.091E+03,   910.091E+03
C:/temp/Job-5.odb,Step-1,Increment      1: Step Time =    1.000,"P-5-1",           391,           75.,            0.,            0.,NA,NA,"",   1.29294E+06,   1.28920E+06,   1.28920E+06
C:/temp/Job-5.odb,Step-1,Increment      1: Step Time =    1.000,"P-5-1",           392,           65.,            0.,            0.,NA,NA,"",   1.66022E+06,   1.65781E+06,   1.65781E+06
C:/temp/Job-5.odb,Step-1,Increment      1: Step Time =    1.000,"P-5-1",           393,           55.,            0.,            0.,NA,NA,"",   1.95855E+06,   1.95266E+06,   1.95266E+06
C:/temp/Job-5.odb,Step-1,Increment      1: Step Time =    1.000,"P-5-1",           394,           45.,            0.,            0.,NA,NA,"",   2.17355E+06,   2.16955E+06,   2.16955E+06
C:/temp/Job-5.odb,Step-1,Increment      1: Step Time =    1.000,"P-5-1",           395,           35.,            0.,            0.,NA,NA,"",   2.29568E+06,   2.29459E+06,   2.29459E+06
C:/temp/Job-5.odb,Step-1,Increment      1: Step Time =    1.000,"P-5-1",           396,           25.,            0.,            0.,NA,NA,"",   2.36013E+06,   2.36093E+06,   2.36093E+06
C:/temp/Job-5.odb,Step-1,Increment      1: Step Time =    1.000,"P-5-1",           397,           15.,            0.,            0.,NA,NA,"",   2.42227E+06,   2.43047E+06,   2.43047E+06
C:/temp/Job-5.odb,Step-1,Increment      1: Step Time =    1.000,"P-5-1",           398,            5.,            0.,            0.,NA,NA,"",   2.76195E+06,   2.82535E+06,   2.82535E+06
C:/temp/Job-5.odb,Step-1,Increment      1: Step Time =    1.000,"P-5-1",           399,          200.,          195.,            0.,NA,NA,"",   1.00111E+06,   998.799E+03,   998.799E+03
C:/temp/Job-5.odb,Step-1,Increment      1: Step Time =    1.000,"P-5-1",           400,          200.,          185.,            0.,NA,NA,"",   1.01007E+06,   1.00193E+06,   1.00193E+06
C:/temp/Job-5.odb,Step-1,Increment      1: Step Time =    1.000,"P-5-1",           401,          200.,          175.,            0.,NA,NA,"",   1.00441E+06,   1.00495E+06,   1.00495E+06
C:/temp/Job-5.odb,Step-1,Increment      1: Step Time =    1.000,"P-5-1",           402,          200.,          165.,            0.,NA,NA,"",   966.192E+03,   1.00827E+06,   1.00827E+06
C:/temp/Job-5.odb,Step-1,Increment      1: Step Time =    1.000,"P-5-1",           403,          200.,          155.,            0.,NA,NA,"",   905.628E+03,   1.01299E+06,   1.01299E+06
C:/temp/Job-5.odb,Step-1,Increment      1: Step Time =    1.000,"P-5-1",           404,          200.,          145.,            0.,NA,NA,"",   897.598E+03,   1.02766E+06,   1.02766E+06
C:/temp/Job-5.odb,Step-1,Increment      1: Step Time =    1.000,"P-5-1",           405,          200.,          135.,            0.,NA,NA,"",   1.04683E+06,   1.15066E+06,   1.15066E+06
C:/temp/Job-5.odb,Step-1,Increment      1: Step Time =    1.000,"P-5-1",           406,          200.,          125.,            0.,NA,NA,"",   1.34346E+06,   1.53117E+06,   1.53117E+06
C:/temp/Job-5.odb,Step-1,Increment      1: Step Time =    1.000,"P-5-1",           407,          200.,          115.,            0.,NA,NA,"",   1.65165E+06,   1.90629E+06,   1.90629E+06
C:/temp/Job-5.odb,Step-1,Increment      1: Step Time =    1.000,"P-5-1",           408,          200.,          105.,            0.,NA,NA,"",   1.84132E+06,   2.12418E+06,   2.12418E+06
C:/temp/Job-5.odb,Step-1,Increment      1: Step Time =    1.000,"P-5-1",           409,          200.,           95.,            0.,NA,NA,"",   1.83914E+06,   2.12174E+06,   2.12174E+06
C:/temp/Job-5.odb,Step-1,Increment      1: Step Time =    1.000,"P-5-1",           410,          200.,           85.,            0.,NA,NA,"",   1.65049E+06,   1.90500E+06,   1.90500E+06
C:/temp/Job-5.odb,Step-1,Increment      1: Step Time =    1.000,"P-5-1",           411,          200.,           75.,            0.,NA,NA,"",   1.34771E+06,   1.53629E+06,   1.53629E+06
C:/temp/Job-5.odb,Step-1,Increment      1: Step Time =    1.000,"P-5-1",           412,          200.,           65.,            0.,NA,NA,"",   1.04751E+06,   1.16093E+06,   1.16093E+06
C:/temp/Job-5.odb,Step-1,Increment      1: Step Time =    1.000,"P-5-1",           413,          200.,           55.,            0.,NA,NA,"",   916.617E+03,   1.05402E+06,   1.05402E+06
C:/temp/Job-5.odb,Step-1,Increment      1: Step Time =    1.000,"P-5-1",           414,          200.,           45.,            0.,NA,NA,"",   914.235E+03,   1.01817E+06,   1.01817E+06
C:/temp/Job-5.odb,Step-1,Increment      1: Step Time =    1.000,"P-5-1",           415,          200.,           35.,            0.,NA,NA,"",   968.646E+03,   1.00674E+06,   1.00674E+06
C:/temp/Job-5.odb,Step-1,Increment      1: Step Time =    1.000,"P-5-1",           416,          200.,           25.,            0.,NA,NA,"",   1.00498E+06,   1.00388E+06,   1.00388E+06
C:/temp/Job-5.odb,Step-1,Increment      1: Step Time =    1.000,"P-5-1",           417,          200.,           15.,            0.,NA,NA,"",   1.00990E+06,   1.00177E+06,   1.00177E+06
C:/temp/Job-5.odb,Step-1,Increment      1: Step Time =    1.000,"P-5-1",           418,          200.,            5.,            0.,NA,NA,"",   1.00120E+06,   998.969E+03,   998.969E+03
C:/temp/Job-5.odb,Step-1,Increment      1: Step Time =    1.000,"P-5-1",           419,            5.,          200.,            0.,NA,NA,"",   2.76157E+06,   2.82611E+06,   2.82611E+06
C:/temp/Job-5.odb,Step-1,Increment      1: Step Time =    1.000,"P-5-1",           420,           15.,          200.,            0.,NA,NA,"",   2.42418E+06,   2.43212E+06,   2.43212E+06
C:/temp/Job-5.odb,Step-1,Increment      1: Step Time =    1.000,"P-5-1",           421,           25.,          200.,            0.,NA,NA,"",   2.35833E+06,   2.35865E+06,   2.35865E+06
C:/temp/Job-5.odb,Step-1,Increment      1: Step Time =    1.000,"P-5-1",           422,           35.,          200.,            0.,NA,NA,"",   2.29036E+06,   2.28901E+06,   2.28901E+06
C:/temp/Job-5.odb,Step-1,Increment      1: Step Time =    1.000,"P-5-1",           423,           45.,          200.,            0.,NA,NA,"",   2.16785E+06,   2.16526E+06,   2.16526E+06
C:/temp/Job-5.odb,Step-1,Increment      1: Step Time =    1.000,"P-5-1",           424,           55.,          200.,            0.,NA,NA,"",   1.96314E+06,   1.95904E+06,   1.95904E+06
C:/temp/Job-5.odb,Step-1,Increment      1: Step Time =    1.000,"P-5-1",           425,           65.,          200.,            0.,NA,NA,"",   1.66643E+06,   1.66163E+06,   1.66163E+06
C:/temp/Job-5.odb,Step-1,Increment      1: Step Time =    1.000,"P-5-1",           426,           75.,          200.,            0.,NA,NA,"",   1.30150E+06,   1.29723E+06,   1.29723E+06
C:/temp/Job-5.odb,Step-1,Increment      1: Step Time =    1.000,"P-5-1",           427,           85.,          200.,            0.,NA,NA,"",   919.871E+03,   916.867E+03,   916.867E+03
C:/temp/Job-5.odb,Step-1,Increment      1: Step Time =    1.000,"P-5-1",           428,           95.,          200.,            0.,NA,NA,"",   588.917E+03,   588.582E+03,   588.582E+03
C:/temp/Job-5.odb,Step-1,Increment      1: Step Time =    1.000,"P-5-1",           429,          105.,          200.,            0.,NA,NA,"",   371.461E+03,   374.524E+03,   374.524E+03
C:/temp/Job-5.odb,Step-1,Increment      1: Step Time =    1.000,"P-5-1",           430,          115.,          200.,            0.,NA,NA,"",   303.205E+03,    306.95E+03,    306.95E+03
C:/temp/Job-5.odb,Step-1,Increment      1: Step Time =    1.000,"P-5-1",           431,          125.,          200.,            0.,NA,NA,"",   377.248E+03,   379.291E+03,   379.291E+03
C:/temp/Job-5.odb,Step-1,Increment      1: Step Time =    1.000,"P-5-1",           432,          135.,          200.,            0.,NA,NA,"",   554.112E+03,   554.383E+03,   554.383E+03
C:/temp/Job-5.odb,Step-1,Increment      1: Step Time =    1.000,"P-5-1",           433,          145.,          200.,            0.,NA,NA,"",   746.241E+03,   738.716E+03,   738.716E+03
C:/temp/Job-5.odb,Step-1,Increment      1: Step Time =    1.000,"P-5-1",           434,          155.,          200.,            0.,NA,NA,"",   859.745E+03,   857.533E+03,   857.533E+03
C:/temp/Job-5.odb,Step-1,Increment      1: Step Time =    1.000,"P-5-1",           435,          165.,          200.,            0.,NA,NA,"",   926.093E+03,   925.350E+03,   925.350E+03
C:/temp/Job-5.odb,Step-1,Increment      1: Step Time =    1.000,"P-5-1",           436,          175.,          200.,            0.,NA,NA,"",   959.479E+03,   959.194E+03,   959.194E+03
C:/temp/Job-5.odb,Step-1,Increment      1: Step Time =    1.000,"P-5-1",           437,          185.,          200.,            0.,NA,NA,"",   978.985E+03,   978.922E+03,   978.922E+03
C:/temp/Job-5.odb,Step-1,Increment      1: Step Time =    1.000,"P-5-1",           438,          195.,          200.,            0.,NA,NA,"",   995.958E+03,   995.311E+03,   995.311E+03
C:/temp/Job-5.odb,Step-1,Increment      1: Step Time =    1.000,"P-5-1",           439,            0.,            5.,            0.,NA,NA,"",   2.57314E+06,   2.74928E+06,   2.74928E+06
C:/temp/Job-5.odb,Step-1,Increment      1: Step Time =    1.000,"P-5-1",           440,            0.,           15.,            0.,NA,NA,"",   1.84088E+06,   2.03695E+06,   2.03695E+06
C:/temp/Job-5.odb,Step-1,Increment      1: Step Time =    1.000,"P-5-1",           441,            0.,           25.,            0.,NA,NA,"",   1.47999E+06,   1.65219E+06,   1.65219E+06
C:/temp/Job-5.odb,Step-1,Increment      1: Step Time =    1.000,"P-5-1",           442,            0.,           35.,            0.,NA,NA,"",   1.17829E+06,   1.31891E+06,   1.31891E+06
C:/temp/Job-5.odb,Step-1,Increment      1: Step Time =    1.000,"P-5-1",           443,            0.,           45.,            0.,NA,NA,"",   912.861E+03,   1.01967E+06,   1.01967E+06
C:/temp/Job-5.odb,Step-1,Increment      1: Step Time =    1.000,"P-5-1",           444,            0.,           55.,            0.,NA,NA,"",    663.95E+03,   735.235E+03,   735.235E+03
C:/temp/Job-5.odb,Step-1,Increment      1: Step Time =    1.000,"P-5-1",           445,            0.,           65.,            0.,NA,NA,"",   444.439E+03,   480.924E+03,   480.924E+03
C:/temp/Job-5.odb,Step-1,Increment      1: Step Time =    1.000,"P-5-1",           446,            0.,           75.,            0.,NA,NA,"",   265.484E+03,   267.761E+03,   267.761E+03
C:/temp/Job-5.odb,Step-1,Increment      1: Step Time =    1.000,"P-5-1",           447,            0.,           85.,            0.,NA,NA,"",   141.715E+03,   110.693E+03,   110.693E+03
C:/temp/Job-5.odb,Step-1,Increment      1: Step Time =    1.000,"P-5-1",           448,            0.,           95.,            0.,NA,NA,"",   86.3454E+03,  -72.1597E+03,  -72.1597E+03
C:/temp/Job-5.odb,Step-1,Increment      1: Step Time =    1.000,"P-5-1",           449,            0.,          105.,            0.,NA,NA,"",   86.4063E+03,  -72.2412E+03,  -72.2412E+03
C:/temp/Job-5.odb,Step-1,Increment      1: Step Time =    1.000,"P-5-1",           450,            0.,          115.,            0.,NA,NA,"",   140.938E+03,   109.054E+03,   109.054E+03
C:/temp/Job-5.odb,Step-1,Increment      1: Step Time =    1.000,"P-5-1",           451,            0.,          125.,            0.,NA,NA,"",   264.367E+03,   266.034E+03,   266.034E+03
C:/temp/Job-5.odb,Step-1,Increment      1: Step Time =    1.000,"P-5-1",           452,            0.,          135.,            0.,NA,NA,"",   443.055E+03,   478.783E+03,   478.783E+03
C:/temp/Job-5.odb,Step-1,Increment      1: Step Time =    1.000,"P-5-1",           453,            0.,          145.,            0.,NA,NA,"",   671.490E+03,   744.023E+03,   744.023E+03
C:/temp/Job-5.odb,Step-1,Increment      1: Step Time =    1.000,"P-5-1",           454,            0.,          155.,            0.,NA,NA,"",   924.932E+03,   1.03652E+06,   1.03652E+06
C:/temp/Job-5.odb,Step-1,Increment      1: Step Time =    1.000,"P-5-1",           455,            0.,          165.,            0.,NA,NA,"",   1.17927E+06,   1.32109E+06,   1.32109E+06
C:/temp/Job-5.odb,Step-1,Increment      1: Step Time =    1.000,"P-5-1",           456,            0.,          175.,            0.,NA,NA,"",   1.47862E+06,   1.65056E+06,   1.65056E+06
C:/temp/Job-5.odb,Step-1,Increment      1: Step Time =    1.000,"P-5-1",           457,            0.,          185.,            0.,NA,NA,"",   1.84029E+06,   2.03585E+06,   2.03585E+06
C:/temp/Job-5.odb,Step-1,Increment      1: Step Time =    1.000,"P-5-1",           458,            0.,          195.,            0.,NA,NA,"",   2.57097E+06,   2.74753E+06,   2.74753E+06
C:/temp/Job-5.odb,Step-1,Increment      1: Step Time =    1.000,"P-5-1",           459,       195.239,       154.826,            0.,NA,NA,"",   940.992E+03,   1.04388E+06,   1.04388E+06
C:/temp/Job-5.odb,Step-1,Increment      1: Step Time =    1.000,"P-5-1",           460,       194.975,       5.04963,            0.,NA,NA,"",   998.822E+03,   997.382E+03,   997.382E+03
C:/temp/Job-5.odb,Step-1,Increment      1: Step Time =    1.000,"P-5-1",           461,       105.041,       194.962,            0.,NA,NA,"",   556.057E+03,   565.399E+03,   565.399E+03
C:/temp/Job-5.odb,Step-1,Increment      1: Step Time =    1.000,"P-5-1",           462,       95.0391,       194.868,            0.,NA,NA,"",   771.593E+03,   770.697E+03,   770.697E+03
C:/temp/Job-5.odb,Step-1,Increment      1: Step Time =    1.000,"P-5-1",           463,       4.93901,       134.825,            0.,NA,NA,"",   429.709E+03,   466.601E+03,   466.601E+03
C:/temp/Job-5.odb,Step-1,Increment      1: Step Time =    1.000,"P-5-1",           464,       4.77808,       124.991,            0.,NA,NA,"",   247.947E+03,   255.185E+03,   255.185E+03
C:/temp/Job-5.odb,Step-1,Increment      1: Step Time =    1.000,"P-5-1",           465,       125.005,       5.11443,            0.,NA,NA,"",   552.280E+03,   557.548E+03,   557.548E+03
C:/temp/Job-5.odb,Step-1,Increment      1: Step Time =    1.000,"P-5-1",           466,       135.024,       4.91337,            0.,NA,NA,"",   675.452E+03,   671.247E+03,   671.247E+03
C:/temp/Job-5.odb,Step-1,Increment      1: Step Time =    1.000,"P-5-1",           467,       104.997,       5.25238,            0.,NA,NA,"",   568.143E+03,   578.804E+03,   578.804E+03
C:/temp/Job-5.odb,Step-1,Increment      1: Step Time =    1.000,"P-5-1",           468,       4.86516,       105.204,            0.,NA,NA,"",   105.168E+03,  -80.6826E+03,  -80.6826E+03
C:/temp/Job-5.odb,Step-1,Increment      1: Step Time =    1.000,"P-5-1",           469,       4.89165,       95.1726,            0.,NA,NA,"",   105.737E+03,  -81.6624E+03,  -81.6624E+03
C:/temp/Job-5.odb,Step-1,Increment      1: Step Time =    1.000,"P-5-1",           470,       95.0033,       5.07212,            0.,NA,NA,"",   771.344E+03,   769.466E+03,   769.466E+03
C:/temp/Job-5.odb,Step-1,Increment      1: Step Time =    1.000,"P-5-1",           471,       115.029,       5.32258,            0.,NA,NA,"",   502.901E+03,   514.984E+03,   514.984E+03
C:/temp/Job-5.odb,Step-1,Increment      1: Step Time =    1.000,"P-5-1",           472,       4.94492,       115.098,            0.,NA,NA,"",   135.790E+03,   108.314E+03,   108.314E+03
C:/temp/Job-5.odb,Step-1,Increment      1: Step Time =    1.000,"P-5-1",           473,       5.15787,       10.0832,            0.,NA,NA,"",   2.17687E+06,   2.33056E+06,   2.33056E+06
C:/temp/Job-5.odb,Step-1,Increment      1: Step Time =    1.000,"P-5-1",           474,       5.37573,       20.3669,            0.,NA,NA,"",   1.69631E+06,   1.85612E+06,   1.85612E+06
C:/temp/Job-5.odb,Step-1,Increment      1: Step Time =    1.000,"P-5-1",           475,       4.82321,       30.4383,            0.,NA,NA,"",   1.35012E+06,   1.49255E+06,   1.49255E+06
C:/temp/Job-5.odb,Step-1,Increment      1: Step Time =    1.000,"P-5-1",           476,       5.13465,       40.4697,            0.,NA,NA,"",   1.06192E+06,   1.17462E+06,   1.17462E+06
C:/temp/Job-5.odb,Step-1,Increment      1: Step Time =    1.000,"P-5-1",           477,       5.06030,       85.1222,            0.,NA,NA,"",   136.176E+03,   108.865E+03,   108.865E+03
C:/temp/Job-5.odb,Step-1,Increment      1: Step Time =    1.000,"P-5-1",           478,       15.2116,       5.07807,            0.,NA,NA,"",   2.37464E+06,   2.38714E+06,   2.38714E+06
C:/temp/Job-5.odb,Step-1,Increment      1: Step Time =    1.000,"P-5-1",           479,       25.3813,       4.60568,            0.,NA,NA,"",   2.30766E+06,   2.30708E+06,   2.30708E+06
C:/temp/Job-5.odb,Step-1,Increment      1: Step Time =    1.000,"P-5-1",           480,       35.0630,       4.27840,            0.,NA,NA,"",   2.24684E+06,   2.24248E+06,   2.24248E+06
C:/temp/Job-5.odb,Step-1,Increment      1: Step Time =    1.000,"P-5-1",           481,       44.5184,       4.68303,            0.,NA,NA,"",   2.13567E+06,   2.12682E+06,   2.12682E+06
C:/temp/Job-5.odb,Step-1,Increment      1: Step Time =    1.000,"P-5-1",           482,       54.9562,       7.03358,            0.,NA,NA,"",   1.94795E+06,   1.92631E+06,   1.92631E+06
C:/temp/Job-5.odb,Step-1,Increment      1: Step Time =    1.000,"P-5-1",           483,       65.4909,       5.03227,            0.,NA,NA,"",   1.69128E+06,   1.67722E+06,   1.67722E+06
C:/temp/Job-5.odb,Step-1,Increment      1: Step Time =    1.000,"P-5-1",           484,       75.2223,       4.70382,            0.,NA,NA,"",   1.38063E+06,   1.36622E+06,   1.36622E+06
C:/temp/Job-5.odb,Step-1,Increment      1: Step Time =    1.000,"P-5-1",           485,       85.0880,       4.87374,            0.,NA,NA,"",   1.05761E+06,   1.04705E+06,   1.04705E+06
C:/temp/Job-5.odb,Step-1,Increment      1: Step Time =    1.000,"P-5-1",           486,       144.964,       4.82723,            0.,NA,NA,"",   803.761E+03,   797.062E+03,   797.062E+03
C:/temp/Job-5.odb,Step-1,Increment      1: Step Time =    1.000,"P-5-1",           487,       154.823,       4.77862,            0.,NA,NA,"",   902.070E+03,   896.034E+03,   896.034E+03
C:/temp/Job-5.odb,Step-1,Increment      1: Step Time =    1.000,"P-5-1",           488,       164.788,       4.84515,            0.,NA,NA,"",   959.905E+03,   955.724E+03,   955.724E+03
C:/temp/Job-5.odb,Step-1,Increment      1: Step Time =    1.000,"P-5-1",           489,       174.829,       5.02948,            0.,NA,NA,"",   982.808E+03,   981.173E+03,   981.173E+03
C:/temp/Job-5.odb,Step-1,Increment      1: Step Time =    1.000,"P-5-1",           490,       184.865,       5.13317,            0.,NA,NA,"",   990.097E+03,   990.242E+03,   990.242E+03
C:/temp/Job-5.odb,Step-1,Increment      1: Step Time =    1.000,"P-5-1",           491,       195.054,       15.0485,            0.,NA,NA,"",   1.00875E+06,   1.00511E+06,   1.00511E+06
C:/temp/Job-5.odb,Step-1,Increment      1: Step Time =    1.000,"P-5-1",           492,       195.346,       24.8545,            0.,NA,NA,"",   1.00549E+06,   1.01159E+06,   1.01159E+06
C:/temp/Job-5.odb,Step-1,Increment      1: Step Time =    1.000,"P-5-1",           493,       195.520,       34.5594,            0.,NA,NA,"",   978.789E+03,   1.02039E+06,   1.02039E+06
C:/temp/Job-5.odb,Step-1,Increment      1: Step Time =    1.000,"P-5-1",           494,       194.964,       44.2262,            0.,NA,NA,"",   948.084E+03,   1.04593E+06,   1.04593E+06
C:/temp/Job-5.odb,Step-1,Increment      1: Step Time =    1.000,"P-5-1",           495,       192.569,       54.6531,            0.,NA,NA,"",   1.01440E+06,   1.14038E+06,   1.14038E+06
C:/temp/Job-5.odb,Step-1,Increment      1: Step Time =    1.000,"P-5-1",           496,       194.798,       65.4303,            0.,NA,NA,"",   1.07139E+06,   1.21234E+06,   1.21234E+06
C:/temp/Job-5.odb,Step-1,Increment      1: Step Time =    1.000,"P-5-1",           497,       195.075,       75.1875,            0.,NA,NA,"",   1.28367E+06,   1.47128E+06,   1.47128E+06
C:/temp/Job-5.odb,Step-1,Increment      1: Step Time =    1.000,"P-5-1",           498,       194.898,       85.0607,            0.,NA,NA,"",   1.49262E+06,   1.72139E+06,   1.72139E+06
C:/temp/Job-5.odb,Step-1,Increment      1: Step Time =    1.000,"P-5-1",           499,       194.881,       95.0959,            0.,NA,NA,"",   1.62381E+06,   1.87179E+06,   1.87179E+06
C:/temp/Job-5.odb,Step-1,Increment      1: Step Time =    1.000,"P-5-1",           500,       194.906,       105.088,            0.,NA,NA,"",   1.62583E+06,   1.87420E+06,   1.87420E+06
C:/temp/Job-5.odb,Step-1,Increment      1: Step Time =    1.000,"P-5-1",           501,       194.929,       115.061,            0.,NA,NA,"",   1.49477E+06,   1.72385E+06,   1.72385E+06
C:/temp/Job-5.odb,Step-1,Increment      1: Step Time =    1.000,"P-5-1",           502,       195.041,       125.018,            0.,NA,NA,"",   1.28062E+06,   1.46791E+06,   1.46791E+06
C:/temp/Job-5.odb,Step-1,Increment      1: Step Time =    1.000,"P-5-1",           503,       195.175,       135.037,            0.,NA,NA,"",   1.06493E+06,   1.20043E+06,   1.20043E+06
C:/temp/Job-5.odb,Step-1,Increment      1: Step Time =    1.000,"P-5-1",           504,       195.217,       144.959,            0.,NA,NA,"",   947.396E+03,   1.08309E+06,   1.08309E+06
C:/temp/Job-5.odb,Step-1,Increment      1: Step Time =    1.000,"P-5-1",           505,       195.165,       164.775,            0.,NA,NA,"",   980.153E+03,   1.02561E+06,   1.02561E+06
C:/temp/Job-5.odb,Step-1,Increment      1: Step Time =    1.000,"P-5-1",           506,       155.781,       194.984,            0.,NA,NA,"",   910.257E+03,   904.516E+03,   904.516E+03
C:/temp/Job-5.odb,Step-1,Increment      1: Step Time =    1.000,"P-5-1",           507,       145.223,       192.553,            0.,NA,NA,"",   901.177E+03,   887.132E+03,   887.132E+03
C:/temp/Job-5.odb,Step-1,Increment      1: Step Time =    1.000,"P-5-1",           508,       194.972,       174.815,            0.,NA,NA,"",   1.00708E+06,   1.01463E+06,   1.01463E+06
C:/temp/Job-5.odb,Step-1,Increment      1: Step Time =    1.000,"P-5-1",           509,       165.443,       195.520,            0.,NA,NA,"",   955.656E+03,   952.824E+03,   952.824E+03
C:/temp/Job-5.odb,Step-1,Increment      1: Step Time =    1.000,"P-5-1",           510,       194.876,       184.875,            0.,NA,NA,"",   1.00961E+06,   1.00591E+06,   1.00591E+06
C:/temp/Job-5.odb,Step-1,Increment      1: Step Time =    1.000,"P-5-1",           511,       175.147,       195.333,            0.,NA,NA,"",   978.414E+03,   977.362E+03,   977.362E+03
C:/temp/Job-5.odb,Step-1,Increment      1: Step Time =    1.000,"P-5-1",           512,       194.955,       194.980,            0.,NA,NA,"",   998.722E+03,   997.191E+03,   997.191E+03
C:/temp/Job-5.odb,Step-1,Increment      1: Step Time =    1.000,"P-5-1",           513,       184.965,       195.060,            0.,NA,NA,"",   988.608E+03,   988.714E+03,   988.714E+03
C:/temp/Job-5.odb,Step-1,Increment      1: Step Time =    1.000,"P-5-1",           514,       134.476,       194.790,            0.,NA,NA,"",   678.223E+03,   676.532E+03,   676.532E+03
C:/temp/Job-5.odb,Step-1,Increment      1: Step Time =    1.000,"P-5-1",           515,       124.703,       195.333,            0.,NA,NA,"",   525.243E+03,   530.389E+03,   530.389E+03
C:/temp/Job-5.odb,Step-1,Increment      1: Step Time =    1.000,"P-5-1",           516,       114.941,       195.182,            0.,NA,NA,"",   473.713E+03,   484.192E+03,   484.192E+03
C:/temp/Job-5.odb,Step-1,Increment      1: Step Time =    1.000,"P-5-1",           517,       85.0245,       194.832,            0.,NA,NA,"",   1.07300E+06,   1.06187E+06,   1.06187E+06
C:/temp/Job-5.odb,Step-1,Increment      1: Step Time =    1.000,"P-5-1",           518,       6.11224,       145.493,            0.,NA,NA,"",   691.551E+03,   759.620E+03,   759.620E+03
C:/temp/Job-5.odb,Step-1,Increment      1: Step Time =    1.000,"P-5-1",           519,       75.0247,       194.820,            0.,NA,NA,"",   1.40171E+06,   1.38515E+06,   1.38515E+06
C:/temp/Job-5.odb,Step-1,Increment      1: Step Time =    1.000,"P-5-1",           520,       65.0147,       194.959,            0.,NA,NA,"",   1.70444E+06,   1.68801E+06,   1.68801E+06
C:/temp/Job-5.odb,Step-1,Increment      1: Step Time =    1.000,"P-5-1",           521,       55.0579,       195.133,            0.,NA,NA,"",   1.95026E+06,   1.93739E+06,   1.93739E+06
C:/temp/Job-5.odb,Step-1,Increment      1: Step Time =    1.000,"P-5-1",           522,       45.1634,       195.227,            0.,NA,NA,"",   2.12549E+06,   2.11683E+06,   2.11683E+06
C:/temp/Job-5.odb,Step-1,Increment      1: Step Time =    1.000,"P-5-1",           523,       35.2203,       195.170,            0.,NA,NA,"",   2.23614E+06,   2.23090E+06,   2.23090E+06
C:/temp/Job-5.odb,Step-1,Increment      1: Step Time =    1.000,"P-5-1",           524,       25.2016,       194.961,            0.,NA,NA,"",   2.30336E+06,   2.30245E+06,   2.30245E+06
C:/temp/Job-5.odb,Step-1,Increment      1: Step Time =    1.000,"P-5-1",           525,       15.1936,       194.911,            0.,NA,NA,"",   2.37596E+06,   2.38812E+06,   2.38812E+06
C:/temp/Job-5.odb,Step-1,Increment      1: Step Time =    1.000,"P-5-1",           526,       5.11355,       194.919,            0.,NA,NA,"",   2.55633E+06,   2.65903E+06,   2.65903E+06
C:/temp/Job-5.odb,Step-1,Increment      1: Step Time =    1.000,"P-5-1",           527,       5.37669,       184.729,            0.,NA,NA,"",   1.89556E+06,   2.05888E+06,   2.05888E+06
C:/temp/Job-5.odb,Step-1,Increment      1: Step Time =    1.000,"P-5-1",           528,       5.06666,       174.567,            0.,NA,NA,"",   1.51138E+06,   1.66378E+06,   1.66378E+06
C:/temp/Job-5.odb,Step-1,Increment      1: Step Time =    1.000,"P-5-1",           529,       4.50131,       164.649,            0.,NA,NA,"",   1.20013E+06,   1.33060E+06,   1.33060E+06
C:/temp/Job-5.odb,Step-1,Increment      1: Step Time =    1.000,"P-5-1",           530,       4.10836,       155.230,            0.,NA,NA,"",   942.288E+03,   1.04678E+06,   1.04678E+06
C:/temp/Job-5.odb,Step-1,Increment      1: Step Time =    1.000,"P-5-1",           531,       4.74467,       75.1568,            0.,NA,NA,"",   248.227E+03,   255.896E+03,   255.896E+03
C:/temp/Job-5.odb,Step-1,Increment      1: Step Time =    1.000,"P-5-1",           532,       4.38831,       65.3490,            0.,NA,NA,"",   431.605E+03,   469.055E+03,   469.055E+03
C:/temp/Job-5.odb,Step-1,Increment      1: Step Time =    1.000,"P-5-1",           533,       4.47348,       55.5814,            0.,NA,NA,"",   657.562E+03,   724.978E+03,   724.978E+03
C:/temp/Job-5.odb,Step-1,Increment      1: Step Time =    1.000,"P-5-1",           534,       189.922,       5.10777,            0.,NA,NA,"",   994.033E+03,   993.843E+03,   993.843E+03
C:/temp/Job-5.odb,Step-1,Increment      1: Step Time =    1.000,"P-5-1",           535,       179.836,       5.11002,            0.,NA,NA,"",   987.075E+03,   986.560E+03,   986.560E+03
C:/temp/Job-5.odb,Step-1,Increment      1: Step Time =    1.000,"P-5-1",           536,       169.815,       4.93350,            0.,NA,NA,"",   974.541E+03,   971.716E+03,   971.716E+03
C:/temp/Job-5.odb,Step-1,Increment      1: Step Time =    1.000,"P-5-1",           537,       159.795,       4.79676,            0.,NA,NA,"",   936.436E+03,   931.162E+03,   931.162E+03
C:/temp/Job-5.odb,Step-1,Increment      1: Step Time =    1.000,"P-5-1",           538,       149.880,       4.79872,            0.,NA,NA,"",   857.154E+03,   850.723E+03,   850.723E+03
C:/temp/Job-5.odb,Step-1,Increment      1: Step Time =    1.000,"P-5-1",           539,       140.025,       4.86798,            0.,NA,NA,"",   742.466E+03,   736.173E+03,   736.173E+03
C:/temp/Job-5.odb,Step-1,Increment      1: Step Time =    1.000,"P-5-1",           540,       130.009,       4.99035,            0.,NA,NA,"",   608.880E+03,   609.085E+03,   609.085E+03
C:/temp/Job-5.odb,Step-1,Increment      1: Step Time =    1.000,"P-5-1",           541,       120.006,       5.25046,            0.,NA,NA,"",   515.261E+03,   524.354E+03,   524.354E+03
C:/temp/Job-5.odb,Step-1,Increment      1: Step Time =    1.000,"P-5-1",           542,       110.022,       5.31921,            0.,NA,NA,"",   518.188E+03,   531.169E+03,   531.169E+03
C:/temp/Job-5.odb,Step-1,Increment      1: Step Time =    1.000,"P-5-1",           543,       99.9794,       5.16535,            0.,NA,NA,"",   655.972E+03,   660.815E+03,   660.815E+03
C:/temp/Job-5.odb,Step-1,Increment      1: Step Time =    1.000,"P-5-1",           544,       90.0546,       4.96707,            0.,NA,NA,"",   906.273E+03,   899.405E+03,   899.405E+03
C:/temp/Job-5.odb,Step-1,Increment      1: Step Time =    1.000,"P-5-1",           545,       80.1240,       4.77014,            0.,NA,NA,"",   1.21841E+06,   1.20510E+06,   1.20510E+06
C:/temp/Job-5.odb,Step-1,Increment      1: Step Time =    1.000,"P-5-1",           546,       70.3484,       4.73288,            0.,NA,NA,"",   1.53999E+06,   1.52560E+06,   1.52560E+06
C:/temp/Job-5.odb,Step-1,Increment      1: Step Time =    1.000,"P-5-1",           547,       60.5301,       5.73583,            0.,NA,NA,"",   1.82684E+06,   1.81143E+06,   1.81143E+06
C:/temp/Job-5.odb,Step-1,Increment      1: Step Time =    1.000,"P-5-1",           548,       49.3738,       5.36151,            0.,NA,NA,"",   2.05404E+06,   2.04006E+06,   2.04006E+06
C:/temp/Job-5.odb,Step-1,Increment      1: Step Time =    1.000,"P-5-1",           549,       39.8104,       4.38818,            0.,NA,NA,"",   2.19838E+06,   2.19244E+06,   2.19244E+06
C:/temp/Job-5.odb,Step-1,Increment      1: Step Time =    1.000,"P-5-1",           550,       30.2742,       4.32457,            0.,NA,NA,"",   2.28247E+06,   2.27991E+06,   2.27991E+06
C:/temp/Job-5.odb,Step-1,Increment      1: Step Time =    1.000,"P-5-1",           551,       20.3717,       5.01438,            0.,NA,NA,"",   2.33509E+06,   2.33815E+06,   2.33815E+06
C:/temp/Job-5.odb,Step-1,Increment      1: Step Time =    1.000,"P-5-1",           552,       10.1150,       5.06045,            0.,NA,NA,"",   2.46936E+06,   2.49321E+06,   2.49321E+06
C:/temp/Job-5.odb,Step-1,Increment      1: Step Time =    1.000,"P-5-1",           553,       194.901,       189.931,            0.,NA,NA,"",   1.00471E+06,   1.00148E+06,   1.00148E+06
C:/temp/Job-5.odb,Step-1,Increment      1: Step Time =    1.000,"P-5-1",           554,       194.894,       179.835,            0.,NA,NA,"",   1.01098E+06,   1.01024E+06,   1.01024E+06
C:/temp/Job-5.odb,Step-1,Increment      1: Step Time =    1.000,"P-5-1",           555,       195.074,       169.793,            0.,NA,NA,"",   996.787E+03,   1.01957E+06,   1.01957E+06
C:/temp/Job-5.odb,Step-1,Increment      1: Step Time =    1.000,"P-5-1",           556,       195.220,       159.792,            0.,NA,NA,"",   959.419E+03,   1.03306E+06,   1.03306E+06
C:/temp/Job-5.odb,Step-1,Increment      1: Step Time =    1.000,"P-5-1",           557,       195.235,       149.880,            0.,NA,NA,"",   933.454E+03,   1.05935E+06,   1.05935E+06
C:/temp/Job-5.odb,Step-1,Increment      1: Step Time =    1.000,"P-5-1",           558,       195.201,       140.026,            0.,NA,NA,"",   990.152E+03,   1.12274E+06,   1.12274E+06
C:/temp/Job-5.odb,Step-1,Increment      1: Step Time =    1.000,"P-5-1",           559,       195.127,       130.029,            0.,NA,NA,"",   1.16627E+06,   1.32421E+06,   1.32421E+06
C:/temp/Job-5.odb,Step-1,Increment      1: Step Time =    1.000,"P-5-1",           560,       194.973,       120.028,            0.,NA,NA,"",   1.39398E+06,   1.60548E+06,   1.60548E+06
C:/temp/Job-5.odb,Step-1,Increment      1: Step Time =    1.000,"P-5-1",           561,       194.912,       110.075,            0.,NA,NA,"",   1.57470E+06,   1.81596E+06,   1.81596E+06
C:/temp/Job-5.odb,Step-1,Increment      1: Step Time =    1.000,"P-5-1",           562,       194.892,       100.092,            0.,NA,NA,"",   1.64267E+06,   1.89321E+06,   1.89321E+06
C:/temp/Job-5.odb,Step-1,Increment      1: Step Time =    1.000,"P-5-1",           563,       194.872,       90.0784,            0.,NA,NA,"",   1.57200E+06,   1.81273E+06,   1.81273E+06
C:/temp/Job-5.odb,Step-1,Increment      1: Step Time =    1.000,"P-5-1",           564,       194.958,       80.0728,            0.,NA,NA,"",   1.39347E+06,   1.60469E+06,   1.60469E+06
C:/temp/Job-5.odb,Step-1,Increment      1: Step Time =    1.000,"P-5-1",           565,       195.112,       70.3558,            0.,NA,NA,"",   1.17140E+06,   1.33144E+06,   1.33144E+06
C:/temp/Job-5.odb,Step-1,Increment      1: Step Time =    1.000,"P-5-1",           566,       194.040,       60.4027,            0.,NA,NA,"",   1.01033E+06,   1.14790E+06,   1.14790E+06
C:/temp/Job-5.odb,Step-1,Increment      1: Step Time =    1.000,"P-5-1",           567,       194.157,       49.1379,            0.,NA,NA,"",   961.275E+03,   1.08032E+06,   1.08032E+06
C:/temp/Job-5.odb,Step-1,Increment      1: Step Time =    1.000,"P-5-1",           568,       195.386,       39.3900,            0.,NA,NA,"",   958.974E+03,   1.02816E+06,   1.02816E+06
C:/temp/Job-5.odb,Step-1,Increment      1: Step Time =    1.000,"P-5-1",           569,       195.491,       29.7241,            0.,NA,NA,"",   995.180E+03,   1.01527E+06,   1.01527E+06
C:/temp/Job-5.odb,Step-1,Increment      1: Step Time =    1.000,"P-5-1",           570,       195.180,       19.9748,            0.,NA,NA,"",   1.00955E+06,   1.00832E+06,   1.00832E+06
C:/temp/Job-5.odb,Step-1,Increment      1: Step Time =    1.000,"P-5-1",           571,       194.982,       10.0730,            0.,NA,NA,"",   1.00438E+06,   1.00129E+06,   1.00129E+06
C:/temp/Job-5.odb,Step-1,Increment      1: Step Time =    1.000,"P-5-1",           572,       10.1560,       194.908,            0.,NA,NA,"",   2.46813E+06,   2.49180E+06,   2.49180E+06
C:/temp/Job-5.odb,Step-1,Increment      1: Step Time =    1.000,"P-5-1",           573,       20.1905,       194.904,            0.,NA,NA,"",   2.33747E+06,   2.34053E+06,   2.34053E+06
C:/temp/Job-5.odb,Step-1,Increment      1: Step Time =    1.000,"P-5-1",           574,       30.2102,       195.072,            0.,NA,NA,"",   2.27285E+06,   2.26959E+06,   2.26959E+06
C:/temp/Job-5.odb,Step-1,Increment      1: Step Time =    1.000,"P-5-1",           575,       40.1886,       195.221,            0.,NA,NA,"",   2.18809E+06,   2.18116E+06,   2.18116E+06
C:/temp/Job-5.odb,Step-1,Increment      1: Step Time =    1.000,"P-5-1",           576,       50.1190,       195.191,            0.,NA,NA,"",   2.04648E+06,   2.03588E+06,   2.03588E+06
C:/temp/Job-5.odb,Step-1,Increment      1: Step Time =    1.000,"P-5-1",           577,       60.0191,       195.051,            0.,NA,NA,"",   1.83626E+06,   1.82143E+06,   1.82143E+06
C:/temp/Job-5.odb,Step-1,Increment      1: Step Time =    1.000,"P-5-1",           578,       70.0275,       194.866,            0.,NA,NA,"",   1.55813E+06,   1.54093E+06,   1.54093E+06
C:/temp/Job-5.odb,Step-1,Increment      1: Step Time =    1.000,"P-5-1",           579,       80.0181,       194.819,            0.,NA,NA,"",   1.23809E+06,   1.22336E+06,   1.22336E+06
C:/temp/Job-5.odb,Step-1,Increment      1: Step Time =    1.000,"P-5-1",           580,       90.0336,       194.848,            0.,NA,NA,"",   915.273E+03,   908.853E+03,   908.853E+03
C:/temp/Job-5.odb,Step-1,Increment      1: Step Time =    1.000,"P-5-1",           581,       100.045,       194.902,            0.,NA,NA,"",   649.394E+03,   654.392E+03,   654.392E+03
C:/temp/Job-5.odb,Step-1,Increment      1: Step Time =    1.000,"P-5-1",           582,       110.009,       195.066,            0.,NA,NA,"",   496.852E+03,   508.151E+03,   508.151E+03
C:/temp/Job-5.odb,Step-1,Increment      1: Step Time =    1.000,"P-5-1",           583,       119.832,       195.301,            0.,NA,NA,"",   484.566E+03,   492.424E+03,   492.424E+03
C:/temp/Job-5.odb,Step-1,Increment      1: Step Time =    1.000,"P-5-1",           584,       129.591,       195.198,            0.,NA,NA,"",   593.041E+03,   594.572E+03,   594.572E+03
C:/temp/Job-5.odb,Step-1,Increment      1: Step Time =    1.000,"P-5-1",           585,       139.471,       194.006,            0.,NA,NA,"",   775.217E+03,   768.926E+03,   768.926E+03
C:/temp/Job-5.odb,Step-1,Increment      1: Step Time =    1.000,"P-5-1",           586,       150.834,       194.168,            0.,NA,NA,"",   891.022E+03,   880.434E+03,   880.434E+03
C:/temp/Job-5.odb,Step-1,Increment      1: Step Time =    1.000,"P-5-1",           587,       160.628,       195.398,            0.,NA,NA,"",   935.477E+03,   931.649E+03,   931.649E+03
C:/temp/Job-5.odb,Step-1,Increment      1: Step Time =    1.000,"P-5-1",           588,       170.270,       195.479,            0.,NA,NA,"",   969.421E+03,   967.467E+03,   967.467E+03
C:/temp/Job-5.odb,Step-1,Increment      1: Step Time =    1.000,"P-5-1",           589,       180.036,       195.176,            0.,NA,NA,"",   984.314E+03,   984.023E+03,   984.023E+03
C:/temp/Job-5.odb,Step-1,Increment      1: Step Time =    1.000,"P-5-1",           590,       189.937,       194.990,            0.,NA,NA,"",   993.452E+03,   993.240E+03,   993.240E+03
C:/temp/Job-5.odb,Step-1,Increment      1: Step Time =    1.000,"P-5-1",           591,       5.30174,       15.2003,            0.,NA,NA,"",   1.89797E+06,   2.06204E+06,   2.06204E+06
C:/temp/Job-5.odb,Step-1,Increment      1: Step Time =    1.000,"P-5-1",           592,       5.02454,       25.4328,            0.,NA,NA,"",   1.51205E+06,   1.66513E+06,   1.66513E+06
C:/temp/Job-5.odb,Step-1,Increment      1: Step Time =    1.000,"P-5-1",           593,       4.91223,       35.4506,            0.,NA,NA,"",   1.20336E+06,   1.33203E+06,   1.33203E+06
C:/temp/Job-5.odb,Step-1,Increment      1: Step Time =    1.000,"P-5-1",           594,       5.27028,       45.5983,            0.,NA,NA,"",   923.378E+03,   1.02050E+06,   1.02050E+06
C:/temp/Job-5.odb,Step-1,Increment      1: Step Time =    1.000,"P-5-1",           595,       4.82485,       50.6080,            0.,NA,NA,"",   787.841E+03,   870.124E+03,   870.124E+03
C:/temp/Job-5.odb,Step-1,Increment      1: Step Time =    1.000,"P-5-1",           596,       4.34130,       60.4746,            0.,NA,NA,"",   539.981E+03,   592.416E+03,   592.416E+03
C:/temp/Job-5.odb,Step-1,Increment      1: Step Time =    1.000,"P-5-1",           597,       4.53224,       70.2372,            0.,NA,NA,"",   333.218E+03,   355.881E+03,   355.881E+03
C:/temp/Job-5.odb,Step-1,Increment      1: Step Time =    1.000,"P-5-1",           598,       4.94102,       80.1301,            0.,NA,NA,"",   180.688E+03,   172.351E+03,   172.351E+03
C:/temp/Job-5.odb,Step-1,Increment      1: Step Time =    1.000,"P-5-1",           599,       4.99490,       90.1338,            0.,NA,NA,"",   114.216E+03,   2.86821E+03,   2.86821E+03
C:/temp/Job-5.odb,Step-1,Increment      1: Step Time =    1.000,"P-5-1",           600,       4.83540,       100.199,            0.,NA,NA,"",   103.292E+03,  -86.1707E+03,  -86.1707E+03
C:/temp/Job-5.odb,Step-1,Increment      1: Step Time =    1.000,"P-5-1",           601,       4.91506,       110.173,            0.,NA,NA,"",   113.690E+03,   3.46149E+03,   3.46149E+03
C:/temp/Job-5.odb,Step-1,Increment      1: Step Time =    1.000,"P-5-1",           602,       4.85286,       120.021,            0.,NA,NA,"",   180.201E+03,   171.327E+03,   171.327E+03
C:/temp/Job-5.odb,Step-1,Increment      1: Step Time =    1.000,"P-5-1",           603,       4.78249,       129.932,            0.,NA,NA,"",   332.474E+03,   354.852E+03,   354.852E+03
C:/temp/Job-5.odb,Step-1,Increment      1: Step Time =    1.000,"P-5-1",           604,       5.30691,       139.842,            0.,NA,NA,"",   543.087E+03,   594.789E+03,   594.789E+03
C:/temp/Job-5.odb,Step-1,Increment      1: Step Time =    1.000,"P-5-1",           605,       4.30909,       150.555,            0.,NA,NA,"",   818.988E+03,   907.927E+03,   907.927E+03
C:/temp/Job-5.odb,Step-1,Increment      1: Step Time =    1.000,"P-5-1",           606,       4.30919,       159.881,            0.,NA,NA,"",   1.06715E+06,   1.18471E+06,   1.18471E+06
C:/temp/Job-5.odb,Step-1,Increment      1: Step Time =    1.000,"P-5-1",           607,       4.70075,       169.538,            0.,NA,NA,"",   1.34670E+06,   1.48919E+06,   1.48919E+06
C:/temp/Job-5.odb,Step-1,Increment      1: Step Time =    1.000,"P-5-1",           608,       5.46559,       179.624,            0.,NA,NA,"",   1.69552E+06,   1.85471E+06,   1.85471E+06
C:/temp/Job-5.odb,Step-1,Increment      1: Step Time =    1.000,"P-5-1",           609,       5.22594,       189.856,            0.,NA,NA,"",   2.17514E+06,   2.32802E+06,   2.32802E+06
C:/temp/Job-5.odb,Step-1,Increment      1: Step Time =    1.000,"P-5-1",           610,       141.241,       140.161,            0.,NA,NA,"",   1.83960E+06,   1.77338E+06,   1.77338E+06
C:/temp/Job-5.odb,Step-1,Increment      1: Step Time =    1.000,"P-5-1",           611,       150.731,       73.6052,            0.,NA,NA,"",   1.06004E+06,   141.799E+03,   141.799E+03
C:/temp/Job-5.odb,Step-1,Increment      1: Step Time =    1.000,"P-5-1",           612,       73.2142,       50.5963,            0.,NA,NA,"",   1.82515E+06,   1.81468E+06,   1.81468E+06
C:/temp/Job-5.odb,Step-1,Increment      1: Step Time =    1.000,"P-5-1",           613,       99.8594,       44.8601,            0.,NA,NA,"",   3.91403E+06,   4.02233E+06,   4.02233E+06
C:/temp/Job-5.odb,Step-1,Increment      1: Step Time =    1.000,"P-5-1",           614,       140.209,       58.7764,            0.,NA,NA,"",   1.91795E+06,   1.87129E+06,   1.87129E+06
C:/temp/Job-5.odb,Step-1,Increment      1: Step Time =    1.000,"P-5-1",           615,       135.790,       143.532,            0.,NA,NA,"",   2.28665E+06,   2.29617E+06,   2.29617E+06
C:/temp/Job-5.odb,Step-1,Increment      1: Step Time =    1.000,"P-5-1",           616,       120.484,       151.797,            0.,NA,NA,"",   3.54252E+06,   3.64655E+06,   3.64655E+06
C:/temp/Job-5.odb,Step-1,Increment      1: Step Time =    1.000,"P-5-1",           617,       152.946,       84.4713,            0.,NA,NA,"",   1.34500E+06,  -1.30690E+06,  -1.30690E+06
C:/temp/Job-5.odb,Step-1,Increment      1: Step Time =    1.000,"P-5-1",           618,       130.093,       53.5514,            0.,NA,NA,"",   2.84354E+06,   2.89853E+06,   2.89853E+06
C:/temp/Job-5.odb,Step-1,Increment      1: Step Time =    1.000,"P-5-1",           619,       150.635,       121.001,            0.,NA,NA,"",   1.03494E+06,  -924.320E+03,  -924.320E+03
C:/temp/Job-5.odb,Step-1,Increment      1: Step Time =    1.000,"P-5-1",           620,       68.7826,       53.7591,            0.,NA,NA,"",   1.34432E+06,   1.29484E+06,   1.29484E+06
C:/temp/Job-5.odb,Step-1,Increment      1: Step Time =    1.000,"P-5-1",           621,       148.529,       125.599,            0.,NA,NA,"",   822.505E+03,  -242.562E+03,  -242.562E+03
C:/temp/Job-5.odb,Step-1,Increment      1: Step Time =    1.000,"P-5-1",           622,       89.6319,       45.7387,            0.,NA,NA,"",   3.34128E+06,   3.41565E+06,   3.41565E+06
C:/temp/Job-5.odb,Step-1,Increment      1: Step Time =    1.000,"P-5-1",           623,       143.585,       64.2194,            0.,NA,NA,"",   1.43046E+06,   1.32709E+06,   1.32709E+06
C:/temp/Job-5.odb,Step-1,Increment      1: Step Time =    1.000,"P-5-1",           624,       110.957,       44.4872,            0.,NA,NA,"",   3.70853E+06,   3.85794E+06,   3.85794E+06
C:/temp/Job-5.odb,Step-1,Increment      1: Step Time =    1.000,"P-5-1",           625,       105.120,       44.6968,            0.,NA,NA,"",   3.94894E+06,   4.07625E+06,   4.07625E+06
C:/temp/Job-5.odb,Step-1,Increment      1: Step Time =    1.000,"P-5-1",           626,       155.473,       111.167,            0.,NA,NA,"",   1.41624E+06,  -1.39701E+06,  -1.39701E+06
C:/temp/Job-5.odb,Step-1,Increment      1: Step Time =    1.000,"P-5-1",           627,       115.458,       153.097,            0.,NA,NA,"",   3.85420E+06,   3.96585E+06,   3.96585E+06
C:/temp/Job-5.odb,Step-1,Increment      1: Step Time =    1.000,"P-5-1",           628,       154.096,       89.4544,            0.,NA,NA,"",   1.58922E+06,  -1.59443E+06,  -1.59443E+06
C:/temp/Job-5.odb,Step-1,Increment      1: Step Time =    1.000,"P-5-1",           629,       154.960,       94.5551,            0.,NA,NA,"",   1.73410E+06,  -1.76227E+06,  -1.76227E+06
C:/temp/Job-5.odb,Step-1,Increment      1: Step Time =    1.000,"P-5-1",           630,       155.466,       99.7843,            0.,NA,NA,"",   1.75792E+06,  -1.79239E+06,  -1.79239E+06
C:/temp/Job-5.odb,Step-1,Increment      1: Step Time =    1.000,"P-5-1",           631,       152.651,       116.322,            0.,NA,NA,"",   1.31427E+06,  -1.27212E+06,  -1.27212E+06
C:/temp/Job-5.odb,Step-1,Increment      1: Step Time =    1.000,"P-5-1",           632,       84.4212,       46.3932,            0.,NA,NA,"",   2.87317E+06,   2.92343E+06,   2.92343E+06
C:/temp/Job-5.odb,Step-1,Increment      1: Step Time =    1.000,"P-5-1",           633,       125.546,       51.2367,            0.,NA,NA,"",   3.26820E+06,   3.34694E+06,   3.34694E+06
C:/temp/Job-5.odb,Step-1,Increment      1: Step Time =    1.000,"P-5-1",           634,       110.458,       154.182,            0.,NA,NA,"",   4.00995E+06,   4.12985E+06,   4.12985E+06
C:/temp/Job-5.odb,Step-1,Increment      1: Step Time =    1.000,"P-5-1",           635,       78.1820,       46.7677,            0.,NA,NA,"",   2.32539E+06,   2.34150E+06,   2.34150E+06
C:/temp/Job-5.odb,Step-1,Increment      1: Step Time =    1.000,"P-5-1",           636,       146.858,       68.7945,            0.,NA,NA,"",   1.09366E+06,   864.748E+03,   864.748E+03
C:/temp/Job-5.odb,Step-1,Increment      1: Step Time =    1.000,"P-5-1",           637,       120.944,       49.1161,            0.,NA,NA,"",   3.61770E+06,   3.71127E+06,   3.71127E+06
C:/temp/Job-5.odb,Step-1,Increment      1: Step Time =    1.000,"P-5-1",           638,       134.766,       56.0320,            0.,NA,NA,"",   2.37581E+06,   2.39478E+06,   2.39478E+06
C:/temp/Job-5.odb,Step-1,Increment      1: Step Time =    1.000,"P-5-1",           639,       126.348,       150.702,            0.,NA,NA,"",   3.01596E+06,   3.11328E+06,   3.11328E+06
C:/temp/Job-5.odb,Step-1,Increment      1: Step Time =    1.000,"P-5-1",           640,       94.9565,       155.186,            0.,NA,NA,"",   3.66190E+06,   3.75814E+06,   3.75814E+06
C:/temp/Job-5.odb,Step-1,Increment      1: Step Time =    1.000,"P-5-1",           641,       155.621,       105.195,            0.,NA,NA,"",   1.65355E+06,  -1.67777E+06,  -1.67777E+06
C:/temp/Job-5.odb,Step-1,Increment      1: Step Time =    1.000,"P-5-1",           642,       146.282,       130.145,            0.,NA,NA,"",   924.896E+03,   592.982E+03,   592.982E+03
C:/temp/Job-5.odb,Step-1,Increment      1: Step Time =    1.000,"P-5-1",           643,       69.6649,       145.928,            0.,NA,NA,"",   1.33661E+06,   1.30250E+06,   1.30250E+06
C:/temp/Job-5.odb,Step-1,Increment      1: Step Time =    1.000,"P-5-1",           644,       64.2437,       56.7515,            0.,NA,NA,"",   952.383E+03,   854.532E+03,   854.532E+03
C:/temp/Job-5.odb,Step-1,Increment      1: Step Time =    1.000,"P-5-1",           645,       94.7022,       45.1685,            0.,NA,NA,"",   3.68986E+06,   3.78538E+06,   3.78538E+06
C:/temp/Job-5.odb,Step-1,Increment      1: Step Time =    1.000,"P-5-1",           646,       143.903,       134.786,            0.,NA,NA,"",   1.33188E+06,   1.22084E+06,   1.22084E+06
C:/temp/Job-5.odb,Step-1,Increment      1: Step Time =    1.000,"P-5-1",           647,       116.249,       47.0890,            0.,NA,NA,"",   3.80798E+06,   3.92717E+06,   3.92717E+06
C:/temp/Job-5.odb,Step-1,Increment      1: Step Time =    1.000,"P-5-1",           648,       105.346,       154.890,            0.,NA,NA,"",   4.03588E+06,   4.15468E+06,   4.15468E+06
C:/temp/Job-5.odb,Step-1,Increment      1: Step Time =    1.000,"P-5-1",           649,       53.6851,       131.155,            0.,NA,NA,"",   561.248E+03,  -496.222E+03,  -496.222E+03
C:/temp/Job-5.odb,Step-1,Increment      1: Step Time =    1.000,"P-5-1",           650,       47.1958,       83.9190,            0.,NA,NA,"",   739.096E+03,  -762.139E+03,  -762.139E+03
C:/temp/Job-5.odb,Step-1,Increment      1: Step Time =    1.000,"P-5-1",           651,       46.3478,       115.561,            0.,NA,NA,"",   700.774E+03,  -725.314E+03,  -725.314E+03
C:/temp/Job-5.odb,Step-1,Increment      1: Step Time =    1.000,"P-5-1",           652,       44.5226,       89.1133,            0.,NA,NA,"",   665.438E+03,  -699.525E+03,  -699.525E+03
C:/temp/Job-5.odb,Step-1,Increment      1: Step Time =    1.000,"P-5-1",           653,       131.208,       146.792,            0.,NA,NA,"",   2.71459E+06,   2.77125E+06,   2.77125E+06
C:/temp/Job-5.odb,Step-1,Increment      1: Step Time =    1.000,"P-5-1",           654,       44.9568,       100.141,            0.,NA,NA,"",   745.995E+03,  -773.873E+03,  -773.873E+03
C:/temp/Job-5.odb,Step-1,Increment      1: Step Time =    1.000,"P-5-1",           655,       151.689,       79.4499,            0.,NA,NA,"",   1.09008E+06,  -948.540E+03,  -948.540E+03
C:/temp/Job-5.odb,Step-1,Increment      1: Step Time =    1.000,"P-5-1",           656,       65.1843,       143.397,            0.,NA,NA,"",   968.790E+03,   885.138E+03,   885.138E+03
C:/temp/Job-5.odb,Step-1,Increment      1: Step Time =    1.000,"P-5-1",           657,       56.6949,       135.602,            0.,NA,NA,"",   545.904E+03,  -140.851E+03,  -140.851E+03
C:/temp/Job-5.odb,Step-1,Increment      1: Step Time =    1.000,"P-5-1",           658,       58.7624,       60.0426,            0.,NA,NA,"",   737.641E+03,   465.032E+03,   465.032E+03
C:/temp/Job-5.odb,Step-1,Increment      1: Step Time =    1.000,"P-5-1",           659,       51.2133,       74.6020,            0.,NA,NA,"",   666.133E+03,  -668.057E+03,  -668.057E+03
C:/temp/Job-5.odb,Step-1,Increment      1: Step Time =    1.000,"P-5-1",           660,       53.4734,       70.0154,            0.,NA,NA,"",   573.916E+03,  -539.144E+03,  -539.144E+03
C:/temp/Job-5.odb,Step-1,Increment      1: Step Time =    1.000,"P-5-1",           661,       83.2710,       155.038,            0.,NA,NA,"",   2.70683E+06,   2.76365E+06,   2.76365E+06
C:/temp/Job-5.odb,Step-1,Increment      1: Step Time =    1.000,"P-5-1",           662,       73.8952,       148.622,            0.,NA,NA,"",   1.81506E+06,   1.81132E+06,   1.81132E+06
C:/temp/Job-5.odb,Step-1,Increment      1: Step Time =    1.000,"P-5-1",           663,       55.9665,       65.3593,            0.,NA,NA,"",   536.450E+03,  -183.008E+03,  -183.008E+03
C:/temp/Job-5.odb,Step-1,Increment      1: Step Time =    1.000,"P-5-1",           664,       45.7323,       110.347,            0.,NA,NA,"",   744.625E+03,  -770.360E+03,  -770.360E+03
C:/temp/Job-5.odb,Step-1,Increment      1: Step Time =    1.000,"P-5-1",           665,       45.2356,       105.274,            0.,NA,NA,"",   748.770E+03,  -776.150E+03,  -776.150E+03
C:/temp/Job-5.odb,Step-1,Increment      1: Step Time =    1.000,"P-5-1",           666,       50.4884,       126.761,            0.,NA,NA,"",   606.884E+03,  -591.516E+03,  -591.516E+03
C:/temp/Job-5.odb,Step-1,Increment      1: Step Time =    1.000,"P-5-1",           667,       44.8025,       94.9076,            0.,NA,NA,"",   726.883E+03,  -758.152E+03,  -758.152E+03
C:/temp/Job-5.odb,Step-1,Increment      1: Step Time =    1.000,"P-5-1",           668,       49.2197,       79.2198,            0.,NA,NA,"",   734.262E+03,  -748.166E+03,  -748.166E+03
C:/temp/Job-5.odb,Step-1,Increment      1: Step Time =    1.000,"P-5-1",           669,       78.2206,       151.537,            0.,NA,NA,"",   2.30223E+06,   2.32894E+06,   2.32894E+06
C:/temp/Job-5.odb,Step-1,Increment      1: Step Time =    1.000,"P-5-1",           670,       46.6612,       121.758,            0.,NA,NA,"",   586.365E+03,  -597.974E+03,  -597.974E+03
C:/temp/Job-5.odb,Step-1,Increment      1: Step Time =    1.000,"P-5-1",           671,       89.5749,       155.038,            0.,NA,NA,"",   3.25517E+06,   3.33775E+06,   3.33775E+06
C:/temp/Job-5.odb,Step-1,Increment      1: Step Time =    1.000,"P-5-1",           672,       59.9428,       140.817,            0.,NA,NA,"",   777.336E+03,   524.323E+03,   524.323E+03
C:/temp/Job-5.odb,Step-1,Increment      1: Step Time =    1.000,"P-5-1",           673,       100.166,       155.202,            0.,NA,NA,"",   3.91884E+06,   4.02978E+06,   4.02978E+06
C:/temp/Job-5.odb,Step-1,Increment      1: Step Time =    1.000,"P-5-1",           674,       100.433,       159.724,            0.,NA,NA,"",   3.12003E+06,   3.28185E+06,   3.28185E+06
C:/temp/Job-5.odb,Step-1,Increment      1: Step Time =    1.000,"P-5-1",           675,       160.219,       99.2169,            0.,NA,NA,"",   1.02801E+06,  -1.04256E+06,  -1.04256E+06
C:/temp/Job-5.odb,Step-1,Increment      1: Step Time =    1.000,"P-5-1",           676,       40.7334,       100.418,            0.,NA,NA,"",   518.841E+03,  -564.112E+03,  -564.112E+03
C:/temp/Job-5.odb,Step-1,Increment      1: Step Time =    1.000,"P-5-1",           677,       99.5256,       40.4423,            0.,NA,NA,"",   3.13381E+06,   3.29300E+06,   3.29300E+06
C:/temp/Job-5.odb,Step-1,Increment      1: Step Time =    1.000,"P-5-1",           678,       158.492,       88.7556,            0.,NA,NA,"",   1.13158E+06,  -1.05841E+06,  -1.05841E+06
C:/temp/Job-5.odb,Step-1,Increment      1: Step Time =    1.000,"P-5-1",           679,       110.942,       158.791,            0.,NA,NA,"",   3.14627E+06,   3.32410E+06,   3.32410E+06
C:/temp/Job-5.odb,Step-1,Increment      1: Step Time =    1.000,"P-5-1",           680,       161.223,       110.101,            0.,NA,NA,"",   976.849E+03,  -854.929E+03,  -854.929E+03
C:/temp/Job-5.odb,Step-1,Increment      1: Step Time =    1.000,"P-5-1",           681,       90.1414,       159.949,            0.,NA,NA,"",   2.78094E+06,   2.88874E+06,   2.88874E+06
C:/temp/Job-5.odb,Step-1,Increment      1: Step Time =    1.000,"P-5-1",           682,       41.1073,       110.386,            0.,NA,NA,"",   496.054E+03,  -536.739E+03,  -536.739E+03
C:/temp/Job-5.odb,Step-1,Increment      1: Step Time =    1.000,"P-5-1",           683,       89.4492,       41.1184,            0.,NA,NA,"",   2.84294E+06,   2.94134E+06,   2.94134E+06
C:/temp/Job-5.odb,Step-1,Increment      1: Step Time =    1.000,"P-5-1",           684,       109.097,       39.3097,            0.,NA,NA,"",   2.91389E+06,   3.10267E+06,   3.10267E+06
C:/temp/Job-5.odb,Step-1,Increment      1: Step Time =    1.000,"P-5-1",           685,       39.4330,       91.0456,            0.,NA,NA,"",   425.579E+03,  -470.169E+03,  -470.169E+03
C:/temp/Job-5.odb,Step-1,Increment      1: Step Time =    1.000,"P-5-1",           686,       131.539,       49.0131,            0.,NA,NA,"",   2.53702E+06,   2.60210E+06,   2.60210E+06
C:/temp/Job-5.odb,Step-1,Increment      1: Step Time =    1.000,"P-5-1",           687,       49.8157,       134.060,            0.,NA,NA,"",   601.453E+03,  -165.679E+03,  -165.679E+03
C:/temp/Job-5.odb,Step-1,Increment      1: Step Time =    1.000,"P-5-1",           688,       65.8683,       50.0300,            0.,NA,NA,"",   1.63407E+06,   1.50309E+06,   1.50309E+06
C:/temp/Job-5.odb,Step-1,Increment      1: Step Time =    1.000,"P-5-1",           689,       67.8160,       149.516,            0.,NA,NA,"",   1.62623E+06,   1.52573E+06,   1.52573E+06
C:/temp/Job-5.odb,Step-1,Increment      1: Step Time =    1.000,"P-5-1",           690,       140.071,       9.76338,            0.,NA,NA,"",   954.815E+03,   941.795E+03,   941.795E+03
C:/temp/Job-5.odb,Step-1,Increment      1: Step Time =    1.000,"P-5-1",           691,       130.068,       9.90396,            0.,NA,NA,"",   885.990E+03,   889.395E+03,   889.395E+03
C:/temp/Job-5.odb,Step-1,Increment      1: Step Time =    1.000,"P-5-1",           692,       109.968,       10.6947,            0.,NA,NA,"",   871.948E+03,   908.273E+03,   908.273E+03
C:/temp/Job-5.odb,Step-1,Increment      1: Step Time =    1.000,"P-5-1",           693,       80.1456,       9.54689,            0.,NA,NA,"",   1.45209E+06,   1.41997E+06,   1.41997E+06
C:/temp/Job-5.odb,Step-1,Increment      1: Step Time =    1.000,"P-5-1",           694,       70.7826,       9.35028,            0.,NA,NA,"",   1.66818E+06,   1.62911E+06,   1.62911E+06
C:/temp/Job-5.odb,Step-1,Increment      1: Step Time =    1.000,"P-5-1",           695,       62.1099,       10.9366,            0.,NA,NA,"",   1.85890E+06,   1.81252E+06,   1.81252E+06
C:/temp/Job-5.odb,Step-1,Increment      1: Step Time =    1.000,"P-5-1",           696,       190.387,       140.036,            0.,NA,NA,"",   1.09869E+06,   1.23609E+06,   1.23609E+06
C:/temp/Job-5.odb,Step-1,Increment      1: Step Time =    1.000,"P-5-1",           697,       190.342,       130.089,            0.,NA,NA,"",   1.17610E+06,   1.34057E+06,   1.34057E+06
C:/temp/Job-5.odb,Step-1,Increment      1: Step Time =    1.000,"P-5-1",           698,       189.920,       120.098,            0.,NA,NA,"",   1.23274E+06,   1.41708E+06,   1.41708E+06
C:/temp/Job-5.odb,Step-1,Increment      1: Step Time =    1.000,"P-5-1",           699,       189.819,       110.159,            0.,NA,NA,"",   1.24168E+06,   1.42880E+06,   1.42880E+06
C:/temp/Job-5.odb,Step-1,Increment      1: Step Time =    1.000,"P-5-1",           700,       189.761,       100.194,            0.,NA,NA,"",   1.24331E+06,   1.42261E+06,   1.42261E+06
C:/temp/Job-5.odb,Step-1,Increment      1: Step Time =    1.000,"P-5-1",           701,       189.691,       90.1549,            0.,NA,NA,"",   1.24042E+06,   1.42795E+06,   1.42795E+06
C:/temp/Job-5.odb,Step-1,Increment      1: Step Time =    1.000,"P-5-1",           702,       189.752,       80.0338,            0.,NA,NA,"",   1.22616E+06,   1.40849E+06,   1.40849E+06
C:/temp/Job-5.odb,Step-1,Increment      1: Step Time =    1.000,"P-5-1",           703,       190.455,       70.7403,            0.,NA,NA,"",   1.17467E+06,   1.34197E+06,   1.34197E+06
C:/temp/Job-5.odb,Step-1,Increment      1: Step Time =    1.000,"P-5-1",           704,       188.846,       61.8809,            0.,NA,NA,"",   1.14596E+06,   1.27564E+06,   1.27564E+06
C:/temp/Job-5.odb,Step-1,Increment      1: Step Time =    1.000,"P-5-1",           705,       59.9901,       190.093,            0.,NA,NA,"",   1.87778E+06,   1.83701E+06,   1.83701E+06
C:/temp/Job-5.odb,Step-1,Increment      1: Step Time =    1.000,"P-5-1",           706,       70.0319,       189.701,            0.,NA,NA,"",   1.70720E+06,   1.66254E+06,   1.66254E+06
C:/temp/Job-5.odb,Step-1,Increment      1: Step Time =    1.000,"P-5-1",           707,       80.0652,       189.628,            0.,NA,NA,"",   1.48898E+06,   1.45474E+06,   1.45474E+06
C:/temp/Job-5.odb,Step-1,Increment      1: Step Time =    1.000,"P-5-1",           708,       90.0980,       189.698,            0.,NA,NA,"",   1.23474E+06,   1.22435E+06,   1.22435E+06
C:/temp/Job-5.odb,Step-1,Increment      1: Step Time =    1.000,"P-5-1",           709,       100.152,       189.780,            0.,NA,NA,"",   991.261E+03,   1.01001E+06,   1.01001E+06
C:/temp/Job-5.odb,Step-1,Increment      1: Step Time =    1.000,"P-5-1",           710,       119.745,       190.592,            0.,NA,NA,"",   781.244E+03,   803.839E+03,   803.839E+03
C:/temp/Job-5.odb,Step-1,Increment      1: Step Time =    1.000,"P-5-1",           711,       128.991,       190.578,            0.,NA,NA,"",   847.231E+03,   854.834E+03,   854.834E+03
C:/temp/Job-5.odb,Step-1,Increment      1: Step Time =    1.000,"P-5-1",           712,       137.801,       188.701,            0.,NA,NA,"",   1.00461E+06,   994.175E+03,   994.175E+03
C:/temp/Job-5.odb,Step-1,Increment      1: Step Time =    1.000,"P-5-1",           713,       8.62762,       60.9685,            0.,NA,NA,"",   527.247E+03,   575.038E+03,   575.038E+03
C:/temp/Job-5.odb,Step-1,Increment      1: Step Time =    1.000,"P-5-1",           714,       9.07061,       70.3270,            0.,NA,NA,"",   309.698E+03,   335.496E+03,   335.496E+03
C:/temp/Job-5.odb,Step-1,Increment      1: Step Time =    1.000,"P-5-1",           715,       9.93870,       80.1051,            0.,NA,NA,"",   156.826E+03,   155.097E+03,   155.097E+03
C:/temp/Job-5.odb,Step-1,Increment      1: Step Time =    1.000,"P-5-1",           716,       9.96122,       90.3742,            0.,NA,NA,"",   128.056E+03,  -6.31357E+03,  -6.31357E+03
C:/temp/Job-5.odb,Step-1,Increment      1: Step Time =    1.000,"P-5-1",           717,       9.53910,       100.422,            0.,NA,NA,"",   137.537E+03,  -106.387E+03,  -106.387E+03
C:/temp/Job-5.odb,Step-1,Increment      1: Step Time =    1.000,"P-5-1",           718,       9.70210,       120.133,            0.,NA,NA,"",   156.593E+03,   155.114E+03,   155.114E+03
C:/temp/Job-5.odb,Step-1,Increment      1: Step Time =    1.000,"P-5-1",           719,       9.50242,       129.789,            0.,NA,NA,"",   308.236E+03,   333.642E+03,   333.642E+03
C:/temp/Job-5.odb,Step-1,Increment      1: Step Time =    1.000,"P-5-1",           720,       120.084,       10.5906,            0.,NA,NA,"",   845.683E+03,   873.291E+03,   873.291E+03
C:/temp/Job-5.odb,Step-1,Increment      1: Step Time =    1.000,"P-5-1",           721,       99.8377,       10.3321,            0.,NA,NA,"",   1.00902E+06,   1.02645E+06,   1.02645E+06
C:/temp/Job-5.odb,Step-1,Increment      1: Step Time =    1.000,"P-5-1",           722,       90.0072,       9.94865,            0.,NA,NA,"",   1.22045E+06,   1.20881E+06,   1.20881E+06
C:/temp/Job-5.odb,Step-1,Increment      1: Step Time =    1.000,"P-5-1",           723,       110.136,       190.073,            0.,NA,NA,"",   827.390E+03,   858.862E+03,   858.862E+03
C:/temp/Job-5.odb,Step-1,Increment      1: Step Time =    1.000,"P-5-1",           724,       9.87623,       110.325,            0.,NA,NA,"",   126.217E+03,  -3.23040E+03,  -3.23040E+03
C:/temp/Job-5.odb,Step-1,Increment      1: Step Time =    1.000,"P-5-1",           725,       10.2476,       138.969,            0.,NA,NA,"",   523.001E+03,   567.649E+03,   567.649E+03
C:/temp/Job-5.odb,Step-1,Increment      1: Step Time =    1.000,"P-5-1",           726,       130.991,       154.017,            0.,NA,NA,"",   2.44602E+06,   2.52287E+06,   2.52287E+06
C:/temp/Job-5.odb,Step-1,Increment      1: Step Time =    1.000,"P-5-1",           727,       69.6925,       46.8603,            0.,NA,NA,"",   1.91427E+06,   1.82204E+06,   1.82204E+06
C:/temp/Job-5.odb,Step-1,Increment      1: Step Time =    1.000,"P-5-1",           728,       152.443,       127.086,            0.,NA,NA,"",   1.24686E+06,   464.119E+03,   464.119E+03
C:/temp/Job-5.odb,Step-1,Increment      1: Step Time =    1.000,"P-5-1",           729,       150.681,       65.7041,            0.,NA,NA,"",   1.61581E+06,   1.28040E+06,   1.28040E+06
C:/temp/Job-5.odb,Step-1,Increment      1: Step Time =    1.000,"P-5-1",           730,       156.233,       75.0359,            0.,NA,NA,"",   1.33881E+06,   55.8076E+03,   55.8076E+03
C:/temp/Job-5.odb,Step-1,Increment      1: Step Time =    1.000,"P-5-1",           731,       147.876,       140.756,            0.,NA,NA,"",   1.87318E+06,   1.65426E+06,   1.65426E+06
C:/temp/Job-5.odb,Step-1,Increment      1: Step Time =    1.000,"P-5-1",           732,       127.039,       47.0590,            0.,NA,NA,"",   2.77892E+06,   2.88317E+06,   2.88317E+06
C:/temp/Job-5.odb,Step-1,Increment      1: Step Time =    1.000,"P-5-1",           733,       150.705,       131.588,            0.,NA,NA,"",   1.42381E+06,   1.06427E+06,   1.06427E+06
C:/temp/Job-5.odb,Step-1,Increment      1: Step Time =    1.000,"P-5-1",           734,       154.373,       122.620,            0.,NA,NA,"",   1.19903E+06,  -451.147E+03,  -451.147E+03
C:/temp/Job-5.odb,Step-1,Increment      1: Step Time =    1.000,"P-5-1",           735,       73.0452,       43.0742,            0.,NA,NA,"",   2.13557E+06,   2.06874E+06,   2.06874E+06
C:/temp/Job-5.odb,Step-1,Increment      1: Step Time =    1.000,"P-5-1",           736,       122.618,       45.1432,            0.,NA,NA,"",   2.96988E+06,   3.10599E+06,   3.10599E+06
C:/temp/Job-5.odb,Step-1,Increment      1: Step Time =    1.000,"P-5-1",           737,       154.210,       69.0382,            0.,NA,NA,"",   1.54642E+06,   1.12131E+06,   1.12131E+06
C:/temp/Job-5.odb,Step-1,Increment      1: Step Time =    1.000,"P-5-1",           738,       124.941,       156.340,            0.,NA,NA,"",   2.65674E+06,   2.78591E+06,   2.78591E+06
C:/temp/Job-5.odb,Step-1,Increment      1: Step Time =    1.000,"P-5-1",           739,       46.6072,       130.226,            0.,NA,NA,"",   504.650E+03,  -388.039E+03,  -388.039E+03
C:/temp/Job-5.odb,Step-1,Increment      1: Step Time =    1.000,"P-5-1",           740,       48.7378,       68.7580,            0.,NA,NA,"",   518.018E+03,  -400.999E+03,  -400.999E+03
C:/temp/Job-5.odb,Step-1,Increment      1: Step Time =    1.000,"P-5-1",           741,       45.3515,       77.9039,            0.,NA,NA,"",   505.884E+03,  -515.972E+03,  -515.972E+03
C:/temp/Job-5.odb,Step-1,Increment      1: Step Time =    1.000,"P-5-1",           742,       52.1776,       59.4049,            0.,NA,NA,"",   898.327E+03,   671.437E+03,   671.437E+03
C:/temp/Job-5.odb,Step-1,Increment      1: Step Time =    1.000,"P-5-1",           743,       46.8473,       73.4298,            0.,NA,NA,"",   485.892E+03,  -460.147E+03,  -460.147E+03
C:/temp/Job-5.odb,Step-1,Increment      1: Step Time =    1.000,"P-5-1",           744,       59.3891,       146.992,            0.,NA,NA,"",   1.33496E+06,   1.14552E+06,   1.14552E+06
C:/temp/Job-5.odb,Step-1,Increment      1: Step Time =    1.000,"P-5-1",           745,       140.845,       52.3104,            0.,NA,NA,"",   2.13437E+06,   2.06808E+06,   2.06808E+06
C:/temp/Job-5.odb,Step-1,Increment      1: Step Time =    1.000,"P-5-1",           746,       74.8656,       155.270,            0.,NA,NA,"",   2.18696E+06,   2.15078E+06,   2.15078E+06
C:/temp/Job-5.odb,Step-1,Increment      1: Step Time =    1.000,"P-5-1",           747,       134.329,       150.556,            0.,NA,NA,"",   2.38936E+06,   2.42505E+06,   2.42505E+06
C:/temp/Job-5.odb,Step-1,Increment      1: Step Time =    1.000,"P-5-1",           748,       42.8423,       126.767,            0.,NA,NA,"",   411.739E+03,  -347.587E+03,  -347.587E+03
C:/temp/Job-5.odb,Step-1,Increment      1: Step Time =    1.000,"P-5-1",           749,       71.3774,       152.112,            0.,NA,NA,"",   1.92253E+06,   1.85734E+06,   1.85734E+06
C:/temp/Job-5.odb,Step-1,Increment      1: Step Time =    1.000,"P-5-1",           750,       60.2436,       17.2896,            0.,NA,NA,"",   1.96995E+06,   1.88080E+06,   1.88080E+06
C:/temp/Job-5.odb,Step-1,Increment      1: Step Time =    1.000,"P-5-1",           751,       12.8204,       61.3841,            0.,NA,NA,"",   524.666E+03,   563.975E+03,   563.975E+03
C:/temp/Job-5.odb,Step-1,Increment      1: Step Time =    1.000,"P-5-1",           752,       182.478,       59.8256,            0.,NA,NA,"",   1.34178E+06,   1.36659E+06,   1.36659E+06
C:/temp/Job-5.odb,Step-1,Increment      1: Step Time =    1.000,"P-5-1",           753,       59.9785,       185.217,            0.,NA,NA,"",   1.94110E+06,   1.86850E+06,   1.86850E+06
C:/temp/Job-5.odb,Step-1,Increment      1: Step Time =    1.000,"P-5-1",           754,       14.9571,       138.082,            0.,NA,NA,"",   513.420E+03,   544.450E+03,   544.450E+03
C:/temp/Job-5.odb,Step-1,Increment      1: Step Time =    1.000,"P-5-1",           755,       140.055,       14.6409,            0.,NA,NA,"",   1.16242E+06,   1.14537E+06,   1.14537E+06
C:/temp/Job-5.odb,Step-1,Increment      1: Step Time =    1.000,"P-5-1",           756,       185.588,       139.931,            0.,NA,NA,"",   1.24475E+06,   1.32536E+06,   1.32536E+06
C:/temp/Job-5.odb,Step-1,Increment      1: Step Time =    1.000,"P-5-1",           757,       139.657,       182.241,            0.,NA,NA,"",   1.29337E+06,   1.27733E+06,   1.27733E+06
C:/temp/Job-5.odb,Step-1,Increment      1: Step Time =    1.000,"P-5-1",           758,       158.318,       124.187,            0.,NA,NA,"",   1.38706E+06,   461.860E+03,   461.860E+03
C:/temp/Job-5.odb,Step-1,Increment      1: Step Time =    1.000,"P-5-1",           759,       160.546,       78.9325,            0.,NA,NA,"",   1.30929E+06,   8.99039E+03,   8.99039E+03
C:/temp/Job-5.odb,Step-1,Increment      1: Step Time =    1.000,"P-5-1",           760,       75.3977,       38.6305,            0.,NA,NA,"",   2.26889E+06,   2.21112E+06,   2.21112E+06
C:/temp/Job-5.odb,Step-1,Increment      1: Step Time =    1.000,"P-5-1",           761,       124.323,       40.8201,            0.,NA,NA,"",   2.49106E+06,   2.62569E+06,   2.62569E+06
C:/temp/Job-5.odb,Step-1,Increment      1: Step Time =    1.000,"P-5-1",           762,       121.074,       161.246,            0.,NA,NA,"",   2.45477E+06,   2.60440E+06,   2.60440E+06
C:/temp/Job-5.odb,Step-1,Increment      1: Step Time =    1.000,"P-5-1",           763,       38.2840,       124.174,            0.,NA,NA,"",   314.529E+03,  -275.501E+03,  -275.501E+03
C:/temp/Job-5.odb,Step-1,Increment      1: Step Time =    1.000,"P-5-1",           764,       73.8547,       162.103,            0.,NA,NA,"",   2.22992E+06,   2.14699E+06,   2.14699E+06
C:/temp/Job-5.odb,Step-1,Increment      1: Step Time =    1.000,"P-5-1",           765,       40.9487,       77.1673,            0.,NA,NA,"",   357.357E+03,  -349.741E+03,  -349.741E+03
C:/temp/Job-5.odb,Step-1,Increment      1: Step Time =    1.000,"P-5-1",           766,       137.215,       45.9837,            0.,NA,NA,"",   2.23231E+06,   2.22146E+06,   2.22146E+06
C:/temp/Job-5.odb,Step-1,Increment      1: Step Time =    1.000,"P-5-1",           767,       63.0029,       152.584,            0.,NA,NA,"",   1.75263E+06,   1.57626E+06,   1.57626E+06
C:/temp/Job-5.odb,Step-1,Increment      1: Step Time =    1.000,"P-5-1",           768,       154.309,       137.090,            0.,NA,NA,"",   1.82624E+06,   1.47074E+06,   1.47074E+06
C:/temp/Job-5.odb,Step-1,Increment      1: Step Time =    1.000,"P-5-1",           769,       137.334,       154.040,            0.,NA,NA,"",   2.21765E+06,   2.20901E+06,   2.20901E+06
C:/temp/Job-5.odb,Step-1,Increment      1: Step Time =    1.000,"P-5-1",           770,       45.9816,       137.109,            0.,NA,NA,"",   735.997E+03,   341.772E+03,   341.772E+03
C:/temp/Job-5.odb,Step-1,Increment      1: Step Time =    1.000,"P-5-1",           771,       154.129,       62.8391,            0.,NA,NA,"",   1.84555E+06,   1.48926E+06,   1.48926E+06
C:/temp/Job-5.odb,Step-1,Increment      1: Step Time =    1.000,"P-5-1",           772,       62.8706,       46.3366,            0.,NA,NA,"",   1.81069E+06,   1.63026E+06,   1.63026E+06
C:/temp/Job-5.odb,Step-1,Increment      1: Step Time =    1.000,"P-5-1",           773,       45.6387,       63.0441,            0.,NA,NA,"",   725.074E+03,   333.581E+03,   333.581E+03
C:/temp/Job-5.odb,Step-1,Increment      1: Step Time =    1.000,"P-5-1",           774,       106.036,       164.294,            0.,NA,NA,"",   2.55085E+06,   2.73112E+06,   2.73112E+06
C:/temp/Job-5.odb,Step-1,Increment      1: Step Time =    1.000,"P-5-1",           775,       164.312,       92.9593,            0.,NA,NA,"",   740.823E+03,  -595.464E+03,  -595.464E+03
C:/temp/Job-5.odb,Step-1,Increment      1: Step Time =    1.000,"P-5-1",           776,       36.0366,       96.1756,            0.,NA,NA,"",   316.273E+03,  -360.047E+03,  -360.047E+03
C:/temp/Job-5.odb,Step-1,Increment      1: Step Time =    1.000,"P-5-1",           777,       103.897,       35.4463,            0.,NA,NA,"",   2.53213E+06,   2.71276E+06,   2.71276E+06
C:/temp/Job-5.odb,Step-1,Increment      1: Step Time =    1.000,"P-5-1",           778,       71.0609,       13.7064,            0.,NA,NA,"",   1.80391E+06,   1.73978E+06,   1.73978E+06
C:/temp/Job-5.odb,Step-1,Increment      1: Step Time =    1.000,"P-5-1",           779,       14.1281,       129.523,            0.,NA,NA,"",   291.866E+03,   311.692E+03,   311.692E+03
C:/temp/Job-5.odb,Step-1,Increment      1: Step Time =    1.000,"P-5-1",           780,       130.178,       14.6272,            0.,NA,NA,"",   1.12517E+06,   1.13561E+06,   1.13561E+06
C:/temp/Job-5.odb,Step-1,Increment      1: Step Time =    1.000,"P-5-1",           781,       13.5706,       70.2238,            0.,NA,NA,"",   303.743E+03,   325.405E+03,   325.405E+03
C:/temp/Job-5.odb,Step-1,Increment      1: Step Time =    1.000,"P-5-1",           782,       185.729,       130.199,            0.,NA,NA,"",   1.24639E+06,   1.36247E+06,   1.36247E+06
C:/temp/Job-5.odb,Step-1,Increment      1: Step Time =    1.000,"P-5-1",           783,       69.9605,       184.518,            0.,NA,NA,"",   1.86568E+06,   1.79116E+06,   1.79116E+06
C:/temp/Job-5.odb,Step-1,Increment      1: Step Time =    1.000,"P-5-1",           784,       186.650,       70.7498,            0.,NA,NA,"",   1.21937E+06,   1.35638E+06,   1.35638E+06
C:/temp/Job-5.odb,Step-1,Increment      1: Step Time =    1.000,"P-5-1",           785,       128.297,       186.366,            0.,NA,NA,"",   1.06410E+06,   1.08266E+06,   1.08266E+06
C:/temp/Job-5.odb,Step-1,Increment      1: Step Time =    1.000,"P-5-1",           786,       165.651,       104.008,            0.,NA,NA,"",   571.539E+03,  -195.407E+03,  -195.407E+03
C:/temp/Job-5.odb,Step-1,Increment      1: Step Time =    1.000,"P-5-1",           787,       36.4427,       105.396,            0.,NA,NA,"",   330.589E+03,  -374.054E+03,  -374.054E+03
C:/temp/Job-5.odb,Step-1,Increment      1: Step Time =    1.000,"P-5-1",           788,       95.5003,       164.624,            0.,NA,NA,"",   2.52482E+06,   2.65825E+06,   2.65825E+06
C:/temp/Job-5.odb,Step-1,Increment      1: Step Time =    1.000,"P-5-1",           789,       94.2112,       36.0484,            0.,NA,NA,"",   2.57467E+06,   2.70072E+06,   2.70072E+06
C:/temp/Job-5.odb,Step-1,Increment      1: Step Time =    1.000,"P-5-1",           790,       14.8487,       79.7088,            0.,NA,NA,"",   141.921E+03,   139.568E+03,   139.568E+03
C:/temp/Job-5.odb,Step-1,Increment      1: Step Time =    1.000,"P-5-1",           791,       120.355,       16.0915,            0.,NA,NA,"",   1.14618E+06,   1.19973E+06,   1.19973E+06
C:/temp/Job-5.odb,Step-1,Increment      1: Step Time =    1.000,"P-5-1",           792,       80.0436,       14.2724,            0.,NA,NA,"",   1.67223E+06,   1.62478E+06,   1.62478E+06
C:/temp/Job-5.odb,Step-1,Increment      1: Step Time =    1.000,"P-5-1",           793,       14.3676,       120.575,            0.,NA,NA,"",   141.812E+03,   141.432E+03,   141.432E+03
C:/temp/Job-5.odb,Step-1,Increment      1: Step Time =    1.000,"P-5-1",           794,       184.761,       120.251,            0.,NA,NA,"",   1.17089E+06,   1.30566E+06,   1.30566E+06
C:/temp/Job-5.odb,Step-1,Increment      1: Step Time =    1.000,"P-5-1",           795,       80.1817,       184.466,            0.,NA,NA,"",   1.71981E+06,   1.67237E+06,   1.67237E+06
C:/temp/Job-5.odb,Step-1,Increment      1: Step Time =    1.000,"P-5-1",           796,       184.485,       79.9736,            0.,NA,NA,"",   1.15995E+06,   1.29337E+06,   1.29337E+06
C:/temp/Job-5.odb,Step-1,Increment      1: Step Time =    1.000,"P-5-1",           797,       119.870,       185.892,            0.,NA,NA,"",   1.04103E+06,   1.08487E+06,   1.08487E+06
C:/temp/Job-5.odb,Step-1,Increment      1: Step Time =    1.000,"P-5-1",           798,       43.7107,       81.9484,            0.,NA,NA,"",   497.934E+03,  -525.691E+03,  -525.691E+03
C:/temp/Job-5.odb,Step-1,Increment      1: Step Time =    1.000,"P-5-1",           799,       78.2182,       158.963,            0.,NA,NA,"",   2.33170E+06,   2.31987E+06,   2.31987E+06
C:/temp/Job-5.odb,Step-1,Increment      1: Step Time =    1.000,"P-5-1",           800,       118.451,       43.2361,            0.,NA,NA,"",   3.03436E+06,   3.19869E+06,   3.19869E+06
C:/temp/Job-5.odb,Step-1,Increment      1: Step Time =    1.000,"P-5-1",           801,       156.241,       118.368,            0.,NA,NA,"",   1.18732E+06,  -968.121E+03,  -968.121E+03
C:/temp/Job-5.odb,Step-1,Increment      1: Step Time =    1.000,"P-5-1",           802,       14.7449,       90.9474,            0.,NA,NA,"",   132.292E+03,  -59.1742E+03,  -59.1742E+03
C:/temp/Job-5.odb,Step-1,Increment      1: Step Time =    1.000,"P-5-1",           803,       109.728,       16.0979,            0.,NA,NA,"",   1.18353E+06,   1.25278E+06,   1.25278E+06
C:/temp/Job-5.odb,Step-1,Increment      1: Step Time =    1.000,"P-5-1",           804,       89.7999,       14.9316,            0.,NA,NA,"",   1.49797E+06,   1.49069E+06,   1.49069E+06
C:/temp/Job-5.odb,Step-1,Increment      1: Step Time =    1.000,"P-5-1",           805,       14.8078,       110.259,            0.,NA,NA,"",   127.906E+03,  -52.1237E+03,  -52.1237E+03
C:/temp/Job-5.odb,Step-1,Increment      1: Step Time =    1.000,"P-5-1",           806,       184.784,       110.252,            0.,NA,NA,"",   1.00969E+06,   1.15814E+06,   1.15814E+06
C:/temp/Job-5.odb,Step-1,Increment      1: Step Time =    1.000,"P-5-1",           807,       90.1802,       184.555,            0.,NA,NA,"",   1.51009E+06,   1.50712E+06,   1.50712E+06
C:/temp/Job-5.odb,Step-1,Increment      1: Step Time =    1.000,"P-5-1",           808,       184.447,       90.2379,            0.,NA,NA,"",   996.894E+03,   1.14576E+06,   1.14576E+06
C:/temp/Job-5.odb,Step-1,Increment      1: Step Time =    1.000,"P-5-1",           809,       110.421,       184.998,            0.,NA,NA,"",   1.11849E+06,   1.17879E+06,   1.17879E+06
C:/temp/Job-5.odb,Step-1,Increment      1: Step Time =    1.000,"P-5-1",           810,       14.0370,       100.632,            0.,NA,NA,"",   151.330E+03,  -123.532E+03,  -123.532E+03
C:/temp/Job-5.odb,Step-1,Increment      1: Step Time =    1.000,"P-5-1",           811,       99.5893,       15.4497,            0.,NA,NA,"",   1.31240E+06,   1.35266E+06,   1.35266E+06
C:/temp/Job-5.odb,Step-1,Increment      1: Step Time =    1.000,"P-5-1",           812,       184.637,       100.330,            0.,NA,NA,"",   916.663E+03,   1.02995E+06,   1.02995E+06
C:/temp/Job-5.odb,Step-1,Increment      1: Step Time =    1.000,"P-5-1",           813,       100.318,       184.632,            0.,NA,NA,"",   1.28604E+06,   1.33024E+06,   1.33024E+06
C:/temp/Job-5.odb,Step-1,Increment      1: Step Time =    1.000,"P-5-1",           814,       43.7359,       67.7029,            0.,NA,NA,"",   533.909E+03,  -131.610E+03,  -131.610E+03
C:/temp/Job-5.odb,Step-1,Increment      1: Step Time =    1.000,"P-5-1",           815,       66.2877,       152.492,            0.,NA,NA,"",   1.81785E+06,   1.67261E+06,   1.67261E+06
C:/temp/Job-5.odb,Step-1,Increment      1: Step Time =    1.000,"P-5-1",           816,       134.565,       157.062,            0.,NA,NA,"",   2.21875E+06,   2.24965E+06,   2.24965E+06
C:/temp/Job-5.odb,Step-1,Increment      1: Step Time =    1.000,"P-5-1",           817,       43.0328,       133.822,            0.,NA,NA,"",   583.444E+03,   70.5930E+03,   70.5930E+03
C:/temp/Job-5.odb,Step-1,Increment      1: Step Time =    1.000,"P-5-1",           818,       155.544,       132.672,            0.,NA,NA,"",   1.68263E+06,   1.26169E+06,   1.26169E+06
C:/temp/Job-5.odb,Step-1,Increment      1: Step Time =    1.000,"P-5-1",           819,       132.856,       44.1184,            0.,NA,NA,"",   2.32544E+06,   2.37425E+06,   2.37425E+06
C:/temp/Job-5.odb,Step-1,Increment      1: Step Time =    1.000,"P-5-1",           820,       157.316,       65.5893,            0.,NA,NA,"",   1.77804E+06,   1.38303E+06,   1.38303E+06
C:/temp/Job-5.odb,Step-1,Increment      1: Step Time =    1.000,"P-5-1",           821,       66.0765,       43.5776,            0.,NA,NA,"",   1.97495E+06,   1.81986E+06,   1.81986E+06
C:/temp/Job-5.odb,Step-1,Increment      1: Step Time =    1.000,"P-5-1",           822,       17.3499,       65.5851,            0.,NA,NA,"",   424.651E+03,   444.406E+03,   444.406E+03
C:/temp/Job-5.odb,Step-1,Increment      1: Step Time =    1.000,"P-5-1",           823,       64.0468,       15.8148,            0.,NA,NA,"",   1.92200E+06,   1.84297E+06,   1.84297E+06
C:/temp/Job-5.odb,Step-1,Increment      1: Step Time =    1.000,"P-5-1",           824,       184.136,       63.5829,            0.,NA,NA,"",   1.28730E+06,   1.35636E+06,   1.35636E+06
C:/temp/Job-5.odb,Step-1,Increment      1: Step Time =    1.000,"P-5-1",           825,       64.8470,       185.050,            0.,NA,NA,"",   1.90617E+06,   1.83039E+06,   1.83039E+06
C:/temp/Job-5.odb,Step-1,Increment      1: Step Time =    1.000,"P-5-1",           826,       135.023,       14.4808,            0.,NA,NA,"",   1.14059E+06,   1.13308E+06,   1.13308E+06
C:/temp/Job-5.odb,Step-1,Increment      1: Step Time =    1.000,"P-5-1",           827,       14.7836,       133.806,            0.,NA,NA,"",   397.239E+03,   423.609E+03,   423.609E+03
C:/temp/Job-5.odb,Step-1,Increment      1: Step Time =    1.000,"P-5-1",           828,       135.777,       183.704,            0.,NA,NA,"",   1.21637E+06,   1.21213E+06,   1.21213E+06
C:/temp/Job-5.odb,Step-1,Increment      1: Step Time =    1.000,"P-5-1",           829,       185.861,       135.005,            0.,NA,NA,"",   1.24930E+06,   1.34950E+06,   1.34950E+06
C:/temp/Job-5.odb,Step-1,Increment      1: Step Time =    1.000,"P-5-1",           830,       162.120,       126.053,            0.,NA,NA,"",   1.51358E+06,   1.05490E+06,   1.05490E+06
C:/temp/Job-5.odb,Step-1,Increment      1: Step Time =    1.000,"P-5-1",           831,       161.853,       73.7667,            0.,NA,NA,"",   1.49793E+06,   1.02279E+06,   1.02279E+06
C:/temp/Job-5.odb,Step-1,Increment      1: Step Time =    1.000,"P-5-1",           832,       70.8912,       35.8804,            0.,NA,NA,"",   2.19036E+06,   2.07261E+06,   2.07261E+06
C:/temp/Job-5.odb,Step-1,Increment      1: Step Time =    1.000,"P-5-1",           833,       126.509,       161.964,            0.,NA,NA,"",   2.27438E+06,   2.38970E+06,   2.38970E+06
C:/temp/Job-5.odb,Step-1,Increment      1: Step Time =    1.000,"P-5-1",           834,       129.656,       37.7964,            0.,NA,NA,"",   2.16151E+06,   2.23710E+06,   2.23710E+06
C:/temp/Job-5.odb,Step-1,Increment      1: Step Time =    1.000,"P-5-1",           835,       35.5032,       128.450,            0.,NA,NA,"",   354.288E+03,   32.3452E+03,   32.3452E+03
C:/temp/Job-5.odb,Step-1,Increment      1: Step Time =    1.000,"P-5-1",           836,       69.7849,       164.739,            0.,NA,NA,"",   2.18414E+06,   2.05272E+06,   2.05272E+06
C:/temp/Job-5.odb,Step-1,Increment      1: Step Time =    1.000,"P-5-1",           837,       36.1585,       71.8723,            0.,NA,NA,"",   362.791E+03,  -15.6146E+03,  -15.6146E+03
C:/temp/Job-5.odb,Step-1,Increment      1: Step Time =    1.000,"P-5-1",           838,       140.551,       151.665,            0.,NA,NA,"",   2.19023E+06,   2.12781E+06,   2.12781E+06
C:/temp/Job-5.odb,Step-1,Increment      1: Step Time =    1.000,"P-5-1",           839,       153.223,       141.480,            0.,NA,NA,"",   1.93008E+06,   1.63356E+06,   1.63356E+06
C:/temp/Job-5.odb,Step-1,Increment      1: Step Time =    1.000,"P-5-1",           840,       48.3596,       140.580,            0.,NA,NA,"",   915.852E+03,   693.135E+03,   693.135E+03
C:/temp/Job-5.odb,Step-1,Increment      1: Step Time =    1.000,"P-5-1",           841,       46.9310,       58.6423,            0.,NA,NA,"",   937.080E+03,   728.673E+03,   728.673E+03
C:/temp/Job-5.odb,Step-1,Increment      1: Step Time =    1.000,"P-5-1",           842,       59.3384,       48.4379,            0.,NA,NA,"",   1.64207E+06,   1.44334E+06,   1.44334E+06
C:/temp/Job-5.odb,Step-1,Increment      1: Step Time =    1.000,"P-5-1",           843,       151.900,       59.5806,            0.,NA,NA,"",   1.91673E+06,   1.61444E+06,   1.61444E+06
C:/temp/Job-5.odb,Step-1,Increment      1: Step Time =    1.000,"P-5-1",           844,       141.591,       47.2276,            0.,NA,NA,"",   2.15620E+06,   2.08259E+06,   2.08259E+06
C:/temp/Job-5.odb,Step-1,Increment      1: Step Time =    1.000,"P-5-1",           845,       58.9105,       152.099,            0.,NA,NA,"",   1.66034E+06,   1.46020E+06,   1.46020E+06
C:/temp/Job-5.odb,Step-1,Increment      1: Step Time =    1.000,"P-5-1",           846,       100.671,       164.516,            0.,NA,NA,"",   2.55914E+06,   2.72348E+06,   2.72348E+06
C:/temp/Job-5.odb,Step-1,Increment      1: Step Time =    1.000,"P-5-1",           847,       165.276,       98.4109,            0.,NA,NA,"",   571.985E+03,  -383.432E+03,  -383.432E+03
C:/temp/Job-5.odb,Step-1,Increment      1: Step Time =    1.000,"P-5-1",           848,       32.6782,       100.528,            0.,NA,NA,"",   223.457E+03,  -251.518E+03,  -251.518E+03
C:/temp/Job-5.odb,Step-1,Increment      1: Step Time =    1.000,"P-5-1",           849,       99.1794,       31.6205,            0.,NA,NA,"",   2.22917E+06,   2.37021E+06,   2.37021E+06
C:/temp/Job-5.odb,Step-1,Increment      1: Step Time =    1.000,"P-5-1",           850,       125.442,       15.2031,            0.,NA,NA,"",   1.12610E+06,   1.16085E+06,   1.16085E+06
C:/temp/Job-5.odb,Step-1,Increment      1: Step Time =    1.000,"P-5-1",           851,       13.8684,       125.129,            0.,NA,NA,"",   201.847E+03,   214.168E+03,   214.168E+03
C:/temp/Job-5.odb,Step-1,Increment      1: Step Time =    1.000,"P-5-1",           852,       14.1734,       74.8287,            0.,NA,NA,"",   208.953E+03,   221.491E+03,   221.491E+03
C:/temp/Job-5.odb,Step-1,Increment      1: Step Time =    1.000,"P-5-1",           853,       75.3373,       14.2638,            0.,NA,NA,"",   1.74854E+06,   1.68936E+06,   1.68936E+06
C:/temp/Job-5.odb,Step-1,Increment      1: Step Time =    1.000,"P-5-1",           854,       185.338,       125.284,            0.,NA,NA,"",   1.22573E+06,   1.35098E+06,   1.35098E+06
C:/temp/Job-5.odb,Step-1,Increment      1: Step Time =    1.000,"P-5-1",           855,       124.206,       186.381,            0.,NA,NA,"",   1.03494E+06,   1.06578E+06,   1.06578E+06
C:/temp/Job-5.odb,Step-1,Increment      1: Step Time =    1.000,"P-5-1",           856,       184.124,       74.2841,            0.,NA,NA,"",   1.23891E+06,   1.34280E+06,   1.34280E+06
C:/temp/Job-5.odb,Step-1,Increment      1: Step Time =    1.000,"P-5-1",           857,       75.1910,       184.237,            0.,NA,NA,"",   1.80716E+06,   1.74244E+06,   1.74244E+06
C:/temp/Job-5.odb,Step-1,Increment      1: Step Time =    1.000,"P-5-1",           858,       166.252,       109.646,            0.,NA,NA,"",   757.401E+03,  -80.8270E+03,  -80.8270E+03
C:/temp/Job-5.odb,Step-1,Increment      1: Step Time =    1.000,"P-5-1",           859,       35.6358,       110.708,            0.,NA,NA,"",   279.301E+03,  -316.077E+03,  -316.077E+03
C:/temp/Job-5.odb,Step-1,Increment      1: Step Time =    1.000,"P-5-1",           860,       90.6635,       164.712,            0.,NA,NA,"",   2.47273E+06,   2.56417E+06,   2.56417E+06
C:/temp/Job-5.odb,Step-1,Increment      1: Step Time =    1.000,"P-5-1",           861,       88.6968,       35.7014,            0.,NA,NA,"",   2.47660E+06,   2.54881E+06,   2.54881E+06
C:/temp/Job-5.odb,Step-1,Increment      1: Step Time =    1.000,"P-5-1",           862,       84.9493,       14.4627,            0.,NA,NA,"",   1.58214E+06,   1.55305E+06,   1.55305E+06
C:/temp/Job-5.odb,Step-1,Increment      1: Step Time =    1.000,"P-5-1",           863,       15.7220,       115.531,            0.,NA,NA,"",   115.367E+03,   32.6562E+03,   32.6562E+03
C:/temp/Job-5.odb,Step-1,Increment      1: Step Time =    1.000,"P-5-1",           864,       16.0671,       85.3574,            0.,NA,NA,"",   114.624E+03,   24.7452E+03,   24.7452E+03
C:/temp/Job-5.odb,Step-1,Increment      1: Step Time =    1.000,"P-5-1",           865,       115.089,       16.4876,            0.,NA,NA,"",   1.16459E+06,   1.23145E+06,   1.23145E+06
C:/temp/Job-5.odb,Step-1,Increment      1: Step Time =    1.000,"P-5-1",           866,       184.508,       85.1454,            0.,NA,NA,"",   1.07851E+06,   1.22905E+06,   1.22905E+06
C:/temp/Job-5.odb,Step-1,Increment      1: Step Time =    1.000,"P-5-1",           867,       115.261,       185.397,            0.,NA,NA,"",   1.06973E+06,   1.12467E+06,   1.12467E+06
C:/temp/Job-5.odb,Step-1,Increment      1: Step Time =    1.000,"P-5-1",           868,       184.697,       115.239,            0.,NA,NA,"",   1.08969E+06,   1.23668E+06,   1.23668E+06
C:/temp/Job-5.odb,Step-1,Increment      1: Step Time =    1.000,"P-5-1",           869,       85.1913,       184.553,            0.,NA,NA,"",   1.61738E+06,   1.59059E+06,   1.59059E+06
C:/temp/Job-5.odb,Step-1,Increment      1: Step Time =    1.000,"P-5-1",           870,       94.6158,       15.3891,            0.,NA,NA,"",   1.41116E+06,   1.42793E+06,   1.42793E+06
C:/temp/Job-5.odb,Step-1,Increment      1: Step Time =    1.000,"P-5-1",           871,       14.2721,       105.444,            0.,NA,NA,"",   144.027E+03,  -113.579E+03,  -113.579E+03
C:/temp/Job-5.odb,Step-1,Increment      1: Step Time =    1.000,"P-5-1",           872,       184.436,       95.3832,            0.,NA,NA,"",   929.449E+03,   1.05667E+06,   1.05667E+06
C:/temp/Job-5.odb,Step-1,Increment      1: Step Time =    1.000,"P-5-1",           873,       105.416,       184.758,            0.,NA,NA,"",   1.19018E+06,   1.24749E+06,   1.24749E+06
C:/temp/Job-5.odb,Step-1,Increment      1: Step Time =    1.000,"P-5-1",           874,       14.1602,       95.8620,            0.,NA,NA,"",   146.263E+03,  -116.682E+03,  -116.682E+03
C:/temp/Job-5.odb,Step-1,Increment      1: Step Time =    1.000,"P-5-1",           875,       104.590,       15.6674,            0.,NA,NA,"",   1.22841E+06,   1.28726E+06,   1.28726E+06
C:/temp/Job-5.odb,Step-1,Increment      1: Step Time =    1.000,"P-5-1",           876,       184.626,       105.300,            0.,NA,NA,"",   951.100E+03,   1.08065E+06,   1.08065E+06
C:/temp/Job-5.odb,Step-1,Increment      1: Step Time =    1.000,"P-5-1",           877,       95.2330,       184.575,            0.,NA,NA,"",   1.39683E+06,   1.41932E+06,   1.41932E+06
C:/temp/Job-5.odb,Step-1,Increment      1: Step Time =    1.000,"P-5-1",           878,       161.128,       67.9868,            0.,NA,NA,"",   1.70448E+06,   1.30110E+06,   1.30110E+06
C:/temp/Job-5.odb,Step-1,Increment      1: Step Time =    1.000,"P-5-1",           879,       65.1117,       37.8095,            0.,NA,NA,"",   2.08912E+06,   1.92131E+06,   1.92131E+06
C:/temp/Job-5.odb,Step-1,Increment      1: Step Time =    1.000,"P-5-1",           880,       36.6651,       134.637,            0.,NA,NA,"",   572.796E+03,   442.414E+03,   442.414E+03
C:/temp/Job-5.odb,Step-1,Increment      1: Step Time =    1.000,"P-5-1",           881,       132.136,       160.597,            0.,NA,NA,"",   2.17947E+06,   2.23787E+06,   2.23787E+06
C:/temp/Job-5.odb,Step-1,Increment      1: Step Time =    1.000,"P-5-1",           882,       58.4725,       156.696,            0.,NA,NA,"",   1.84138E+06,   1.64071E+06,   1.64071E+06
C:/temp/Job-5.odb,Step-1,Increment      1: Step Time =    1.000,"P-5-1",           883,       142.457,       42.8127,            0.,NA,NA,"",   2.09383E+06,   2.02099E+06,   2.02099E+06
C:/temp/Job-5.odb,Step-1,Increment      1: Step Time =    1.000,"P-5-1",           884,       157.018,       60.3661,            0.,NA,NA,"",   1.90684E+06,   1.56442E+06,   1.56442E+06
C:/temp/Job-5.odb,Step-1,Increment      1: Step Time =    1.000,"P-5-1",           885,       59.9990,       42.7836,            0.,NA,NA,"",   1.89089E+06,   1.69601E+06,   1.69601E+06
C:/temp/Job-5.odb,Step-1,Increment      1: Step Time =    1.000,"P-5-1",           886,       42.3470,       57.7366,            0.,NA,NA,"",   935.753E+03,   765.250E+03,   765.250E+03
C:/temp/Job-5.odb,Step-1,Increment      1: Step Time =    1.000,"P-5-1",           887,       42.3899,       140.207,            0.,NA,NA,"",   851.589E+03,   673.213E+03,   673.213E+03
C:/temp/Job-5.odb,Step-1,Increment      1: Step Time =    1.000,"P-5-1",           888,       157.954,       142.435,            0.,NA,NA,"",   1.92693E+06,   1.62028E+06,   1.62028E+06
C:/temp/Job-5.odb,Step-1,Increment      1: Step Time =    1.000,"P-5-1",           889,       140.161,       157.164,            0.,NA,NA,"",   2.11123E+06,   2.06607E+06,   2.06607E+06
C:/temp/Job-5.odb,Step-1,Increment      1: Step Time =    1.000,"P-5-1",           890,       113.155,       37.9801,            0.,NA,NA,"",   2.68073E+06,   2.86773E+06,   2.86773E+06
C:/temp/Job-5.odb,Step-1,Increment      1: Step Time =    1.000,"P-5-1",           891,       37.7287,       87.0793,            0.,NA,NA,"",   332.481E+03,  -371.154E+03,  -371.154E+03
C:/temp/Job-5.odb,Step-1,Increment      1: Step Time =    1.000,"P-5-1",           892,       164.543,       9.66095,            0.,NA,NA,"",   1.03777E+06,   1.02628E+06,   1.02628E+06
C:/temp/Job-5.odb,Step-1,Increment      1: Step Time =    1.000,"P-5-1",           893,       9.10360,       164.120,            0.,NA,NA,"",   1.24495E+06,   1.34984E+06,   1.34984E+06
C:/temp/Job-5.odb,Step-1,Increment      1: Step Time =    1.000,"P-5-1",           894,       35.0953,       8.62029,            0.,NA,NA,"",   2.15869E+06,   2.14630E+06,   2.14630E+06
C:/temp/Job-5.odb,Step-1,Increment      1: Step Time =    1.000,"P-5-1",           895,       10.2355,       40.6771,            0.,NA,NA,"",   1.11439E+06,   1.20326E+06,   1.20326E+06
C:/temp/Job-5.odb,Step-1,Increment      1: Step Time =    1.000,"P-5-1",           896,       190.365,       164.505,            0.,NA,NA,"",   1.02914E+06,   1.07237E+06,   1.07237E+06
C:/temp/Job-5.odb,Step-1,Increment      1: Step Time =    1.000,"P-5-1",           897,       161.404,       190.956,            0.,NA,NA,"",   1.01751E+06,   1.00681E+06,   1.00681E+06
C:/temp/Job-5.odb,Step-1,Increment      1: Step Time =    1.000,"P-5-1",           898,       190.934,       38.6191,            0.,NA,NA,"",   1.01654E+06,   1.07580E+06,   1.07580E+06
C:/temp/Job-5.odb,Step-1,Increment      1: Step Time =    1.000,"P-5-1",           899,       35.4611,       190.371,            0.,NA,NA,"",   2.13887E+06,   2.12388E+06,   2.12388E+06
C:/temp/Job-5.odb,Step-1,Increment      1: Step Time =    1.000,"P-5-1",           900,       20.6507,       88.0020,            0.,NA,NA,"",   106.223E+03,  -94.8850E+03,  -94.8850E+03
C:/temp/Job-5.odb,Step-1,Increment      1: Step Time =    1.000,"P-5-1",           901,       109.040,       21.2092,            0.,NA,NA,"",   1.47431E+06,   1.57793E+06,   1.57793E+06
C:/temp/Job-5.odb,Step-1,Increment      1: Step Time =    1.000,"P-5-1",           902,       180.152,       110.374,            0.,NA,NA,"",   867.586E+03,   982.428E+03,   982.428E+03
C:/temp/Job-5.odb,Step-1,Increment      1: Step Time =    1.000,"P-5-1",           903,       18.3083,       100.777,            0.,NA,NA,"",   148.169E+03,  -137.041E+03,  -137.041E+03
C:/temp/Job-5.odb,Step-1,Increment      1: Step Time =    1.000,"P-5-1",           904,       99.4731,       20.2632,            0.,NA,NA,"",   1.57034E+06,   1.63762E+06,   1.63762E+06
C:/temp/Job-5.odb,Step-1,Increment      1: Step Time =    1.000,"P-5-1",           905,       179.799,       100.525,            0.,NA,NA,"",   661.746E+03,   731.756E+03,   731.756E+03
C:/temp/Job-5.odb,Step-1,Increment      1: Step Time =    1.000,"P-5-1",           906,       100.519,       179.482,            0.,NA,NA,"",   1.56326E+06,   1.63918E+06,   1.63918E+06
C:/temp/Job-5.odb,Step-1,Increment      1: Step Time =    1.000,"P-5-1",           907,       13.6826,       163.720,            0.,NA,NA,"",   1.29996E+06,   1.37659E+06,   1.37659E+06
C:/temp/Job-5.odb,Step-1,Increment      1: Step Time =    1.000,"P-5-1",           908,       164.267,       14.3964,            0.,NA,NA,"",   1.12916E+06,   1.10704E+06,   1.10704E+06
C:/temp/Job-5.odb,Step-1,Increment      1: Step Time =    1.000,"P-5-1",           909,       35.0170,       13.0117,            0.,NA,NA,"",   2.08209E+06,   2.05873E+06,   2.05873E+06
C:/temp/Job-5.odb,Step-1,Increment      1: Step Time =    1.000,"P-5-1",           910,       15.2104,       40.1642,            0.,NA,NA,"",   1.19093E+06,   1.25025E+06,   1.25025E+06
C:/temp/Job-5.odb,Step-1,Increment      1: Step Time =    1.000,"P-5-1",           911,       185.648,       164.197,            0.,NA,NA,"",   1.11038E+06,   1.13649E+06,   1.13649E+06
C:/temp/Job-5.odb,Step-1,Increment      1: Step Time =    1.000,"P-5-1",           912,       162.157,       186.846,            0.,NA,NA,"",   1.10874E+06,   1.08788E+06,   1.08788E+06
C:/temp/Job-5.odb,Step-1,Increment      1: Step Time =    1.000,"P-5-1",           913,       186.846,       37.8220,            0.,NA,NA,"",   1.09619E+06,   1.13387E+06,   1.13387E+06
C:/temp/Job-5.odb,Step-1,Increment      1: Step Time =    1.000,"P-5-1",           914,       35.7231,       185.639,            0.,NA,NA,"",   2.05771E+06,   2.02952E+06,   2.02952E+06
C:/temp/Job-5.odb,Step-1,Increment      1: Step Time =    1.000,"P-5-1",           915,       61.9312,       20.9244,            0.,NA,NA,"",   2.01385E+06,   1.90124E+06,   1.90124E+06
C:/temp/Job-5.odb,Step-1,Increment      1: Step Time =    1.000,"P-5-1",           916,       16.8285,       57.8600,            0.,NA,NA,"",   654.842E+03,   682.857E+03,   682.857E+03
C:/temp/Job-5.odb,Step-1,Increment      1: Step Time =    1.000,"P-5-1",           917,       60.2705,       180.684,            0.,NA,NA,"",   1.99889E+06,   1.89672E+06,   1.89672E+06
C:/temp/Job-5.odb,Step-1,Increment      1: Step Time =    1.000,"P-5-1",           918,       179.141,       61.6628,            0.,NA,NA,"",   1.43884E+06,   1.40545E+06,   1.40545E+06
C:/temp/Job-5.odb,Step-1,Increment      1: Step Time =    1.000,"P-5-1",           919,       19.5318,       137.968,            0.,NA,NA,"",   540.865E+03,   553.879E+03,   553.879E+03
C:/temp/Job-5.odb,Step-1,Increment      1: Step Time =    1.000,"P-5-1",           920,       139.692,       19.2053,            0.,NA,NA,"",   1.34559E+06,   1.32751E+06,   1.32751E+06
C:/temp/Job-5.odb,Step-1,Increment      1: Step Time =    1.000,"P-5-1",           921,       180.965,       139.412,            0.,NA,NA,"",   1.38603E+06,   1.38961E+06,   1.38961E+06
C:/temp/Job-5.odb,Step-1,Increment      1: Step Time =    1.000,"P-5-1",           922,       137.949,       178.509,            0.,NA,NA,"",   1.42921E+06,   1.41840E+06,   1.41840E+06
C:/temp/Job-5.odb,Step-1,Increment      1: Step Time =    1.000,"P-5-1",           923,       164.542,       121.679,            0.,NA,NA,"",   1.33425E+06,   906.540E+03,   906.540E+03
C:/temp/Job-5.odb,Step-1,Increment      1: Step Time =    1.000,"P-5-1",           924,       161.282,       133.079,            0.,NA,NA,"",   1.73672E+06,   1.33996E+06,   1.33996E+06
C:/temp/Job-5.odb,Step-1,Increment      1: Step Time =    1.000,"P-5-1",           925,       166.248,       81.5580,            0.,NA,NA,"",   1.19289E+06,   507.248E+03,   507.248E+03
C:/temp/Job-5.odb,Step-1,Increment      1: Step Time =    1.000,"P-5-1",           926,       77.5358,       34.2316,            0.,NA,NA,"",   2.28707E+06,   2.23491E+06,   2.23491E+06
C:/temp/Job-5.odb,Step-1,Increment      1: Step Time =    1.000,"P-5-1",           927,       118.412,       168.936,            0.,NA,NA,"",   1.98487E+06,   2.12437E+06,   2.12437E+06
C:/temp/Job-5.odb,Step-1,Increment      1: Step Time =    1.000,"P-5-1",           928,       121.813,       34.2752,            0.,NA,NA,"",   2.14029E+06,   2.27897E+06,   2.27897E+06
C:/temp/Job-5.odb,Step-1,Increment      1: Step Time =    1.000,"P-5-1",           929,       134.448,       38.7409,            0.,NA,NA,"",   2.11163E+06,   2.13772E+06,   2.13772E+06
C:/temp/Job-5.odb,Step-1,Increment      1: Step Time =    1.000,"P-5-1",           930,       33.4292,       121.718,            0.,NA,NA,"",   215.272E+03,  -188.658E+03,  -188.658E+03
C:/temp/Job-5.odb,Step-1,Increment      1: Step Time =    1.000,"P-5-1",           931,       76.4163,       166.287,            0.,NA,NA,"",   2.25002E+06,   2.18397E+06,   2.18397E+06
C:/temp/Job-5.odb,Step-1,Increment      1: Step Time =    1.000,"P-5-1",           932,       66.8872,       161.476,            0.,NA,NA,"",   2.11575E+06,   1.96236E+06,   1.96236E+06
C:/temp/Job-5.odb,Step-1,Increment      1: Step Time =    1.000,"P-5-1",           933,       39.0996,       66.4373,            0.,NA,NA,"",   554.065E+03,   260.353E+03,   260.353E+03
C:/temp/Job-5.odb,Step-1,Increment      1: Step Time =    1.000,"P-5-1",           934,       35.9119,       78.2935,            0.,NA,NA,"",   248.330E+03,  -230.710E+03,  -230.710E+03
C:/temp/Job-5.odb,Step-1,Increment      1: Step Time =    1.000,"P-5-1",           935,       148.174,       149.693,            0.,NA,NA,"",   2.07350E+06,   1.90442E+06,   1.90442E+06
C:/temp/Job-5.odb,Step-1,Increment      1: Step Time =    1.000,"P-5-1",           936,       157.042,       146.597,            0.,NA,NA,"",   1.95721E+06,   1.69465E+06,   1.69465E+06
C:/temp/Job-5.odb,Step-1,Increment      1: Step Time =    1.000,"P-5-1",           937,       43.2460,       53.5096,            0.,NA,NA,"",   1.13746E+06,   967.282E+03,   967.282E+03
C:/temp/Job-5.odb,Step-1,Increment      1: Step Time =    1.000,"P-5-1",           938,       50.7281,       147.385,            0.,NA,NA,"",   1.28627E+06,   1.07351E+06,   1.07351E+06
C:/temp/Job-5.odb,Step-1,Increment      1: Step Time =    1.000,"P-5-1",           939,       150.209,       51.9860,            0.,NA,NA,"",   2.02303E+06,   1.81130E+06,   1.81130E+06
C:/temp/Job-5.odb,Step-1,Increment      1: Step Time =    1.000,"P-5-1",           940,       52.2772,       50.3608,            0.,NA,NA,"",   1.42596E+06,   1.21721E+06,   1.21721E+06
C:/temp/Job-5.odb,Step-1,Increment      1: Step Time =    1.000,"P-5-1",           941,       54.2158,       156.052,            0.,NA,NA,"",   1.73398E+06,   1.52953E+06,   1.52953E+06
C:/temp/Job-5.odb,Step-1,Increment      1: Step Time =    1.000,"P-5-1",           942,       146.353,       43.2597,            0.,NA,NA,"",   2.04285E+06,   1.92669E+06,   1.92669E+06
C:/temp/Job-5.odb,Step-1,Increment      1: Step Time =    1.000,"P-5-1",           943,       142.825,       145.745,            0.,NA,NA,"",   2.07922E+06,   1.97459E+06,   1.97459E+06
C:/temp/Job-5.odb,Step-1,Increment      1: Step Time =    1.000,"P-5-1",           944,       54.4779,       142.391,            0.,NA,NA,"",   1.00223E+06,   782.745E+03,   782.745E+03
C:/temp/Job-5.odb,Step-1,Increment      1: Step Time =    1.000,"P-5-1",           945,       57.2843,       54.5073,            0.,NA,NA,"",   1.22825E+06,   1.02944E+06,   1.02944E+06
C:/temp/Job-5.odb,Step-1,Increment      1: Step Time =    1.000,"P-5-1",           946,       145.959,       57.2378,            0.,NA,NA,"",   1.93208E+06,   1.75710E+06,   1.75710E+06
C:/temp/Job-5.odb,Step-1,Increment      1: Step Time =    1.000,"P-5-1",           947,       18.3524,       128.765,            0.,NA,NA,"",   270.818E+03,   279.828E+03,   279.828E+03
C:/temp/Job-5.odb,Step-1,Increment      1: Step Time =    1.000,"P-5-1",           948,       130.332,       19.0580,            0.,NA,NA,"",   1.32205E+06,   1.34258E+06,   1.34258E+06
C:/temp/Job-5.odb,Step-1,Increment      1: Step Time =    1.000,"P-5-1",           949,       69.5440,       179.475,            0.,NA,NA,"",   1.99834E+06,   1.89798E+06,   1.89798E+06
C:/temp/Job-5.odb,Step-1,Increment      1: Step Time =    1.000,"P-5-1",           950,       181.276,       69.3376,            0.,NA,NA,"",   1.33944E+06,   1.36901E+06,   1.36901E+06
C:/temp/Job-5.odb,Step-1,Increment      1: Step Time =    1.000,"P-5-1",           951,       18.0412,       69.8482,            0.,NA,NA,"",   316.259E+03,   327.562E+03,   327.562E+03
C:/temp/Job-5.odb,Step-1,Increment      1: Step Time =    1.000,"P-5-1",           952,       69.9700,       17.4952,            0.,NA,NA,"",   1.91769E+06,   1.83265E+06,   1.83265E+06
C:/temp/Job-5.odb,Step-1,Increment      1: Step Time =    1.000,"P-5-1",           953,       181.287,       130.417,            0.,NA,NA,"",   1.34058E+06,   1.37258E+06,   1.37258E+06
C:/temp/Job-5.odb,Step-1,Increment      1: Step Time =    1.000,"P-5-1",           954,       129.961,       181.135,            0.,NA,NA,"",   1.30624E+06,   1.33029E+06,   1.33029E+06
C:/temp/Job-5.odb,Step-1,Increment      1: Step Time =    1.000,"P-5-1",           955,       170.878,       108.619,            0.,NA,NA,"",   651.068E+03,   548.414E+03,   548.414E+03
C:/temp/Job-5.odb,Step-1,Increment      1: Step Time =    1.000,"P-5-1",           956,       37.6599,       114.664,            0.,NA,NA,"",   305.683E+03,  -339.630E+03,  -339.630E+03
C:/temp/Job-5.odb,Step-1,Increment      1: Step Time =    1.000,"P-5-1",           957,       90.2262,       169.402,            0.,NA,NA,"",   2.22910E+06,   2.29262E+06,   2.29262E+06
C:/temp/Job-5.odb,Step-1,Increment      1: Step Time =    1.000,"P-5-1",           958,       84.9732,       37.9688,            0.,NA,NA,"",   2.49339E+06,   2.53930E+06,   2.53930E+06
C:/temp/Job-5.odb,Step-1,Increment      1: Step Time =    1.000,"P-5-1",           959,       20.0940,       82.6191,            0.,NA,NA,"",   99.7405E+03,   31.3469E+03,   31.3469E+03
C:/temp/Job-5.odb,Step-1,Increment      1: Step Time =    1.000,"P-5-1",           960,       121.270,       21.8115,            0.,NA,NA,"",   1.43528E+06,   1.51386E+06,   1.51386E+06
C:/temp/Job-5.odb,Step-1,Increment      1: Step Time =    1.000,"P-5-1",           961,       19.7518,       118.366,            0.,NA,NA,"",   99.4183E+03,   52.3713E+03,   52.3713E+03
C:/temp/Job-5.odb,Step-1,Increment      1: Step Time =    1.000,"P-5-1",           962,       179.163,       120.648,            0.,NA,NA,"",   1.18910E+06,   1.21524E+06,   1.21524E+06
C:/temp/Job-5.odb,Step-1,Increment      1: Step Time =    1.000,"P-5-1",           963,       80.5018,       179.590,            0.,NA,NA,"",   1.90529E+06,   1.85528E+06,   1.85528E+06
C:/temp/Job-5.odb,Step-1,Increment      1: Step Time =    1.000,"P-5-1",           964,       19.5885,       109.639,            0.,NA,NA,"",   117.276E+03,  -104.527E+03,  -104.527E+03
C:/temp/Job-5.odb,Step-1,Increment      1: Step Time =    1.000,"P-5-1",           965,       57.4231,       161.164,            0.,NA,NA,"",   1.94584E+06,   1.75308E+06,   1.75308E+06
C:/temp/Job-5.odb,Step-1,Increment      1: Step Time =    1.000,"P-5-1",           966,       143.093,       38.5692,            0.,NA,NA,"",   1.98861E+06,   1.92300E+06,   1.92300E+06
C:/temp/Job-5.odb,Step-1,Increment      1: Step Time =    1.000,"P-5-1",           967,       161.565,       59.2334,            0.,NA,NA,"",   1.88315E+06,   1.56922E+06,   1.56922E+06
C:/temp/Job-5.odb,Step-1,Increment      1: Step Time =    1.000,"P-5-1",           968,       60.6937,       38.3492,            0.,NA,NA,"",   2.01504E+06,   1.82794E+06,   1.82794E+06
C:/temp/Job-5.odb,Step-1,Increment      1: Step Time =    1.000,"P-5-1",           969,       38.2407,       56.6173,            0.,NA,NA,"",   938.274E+03,   808.015E+03,   808.015E+03
C:/temp/Job-5.odb,Step-1,Increment      1: Step Time =    1.000,"P-5-1",           970,       36.6617,       140.240,            0.,NA,NA,"",   776.959E+03,   656.694E+03,   656.694E+03
C:/temp/Job-5.odb,Step-1,Increment      1: Step Time =    1.000,"P-5-1",           971,       162.205,       143.720,            0.,NA,NA,"",   1.87977E+06,   1.59974E+06,   1.59974E+06
C:/temp/Job-5.odb,Step-1,Increment      1: Step Time =    1.000,"P-5-1",           972,       141.336,       162.442,            0.,NA,NA,"",   1.98433E+06,   1.93664E+06,   1.93664E+06
C:/temp/Job-5.odb,Step-1,Increment      1: Step Time =    1.000,"P-5-1",           973,       108.321,       34.8122,            0.,NA,NA,"",   2.42945E+06,   2.61373E+06,   2.61373E+06
C:/temp/Job-5.odb,Step-1,Increment      1: Step Time =    1.000,"P-5-1",           974,       35.2492,       92.0038,            0.,NA,NA,"",   276.326E+03,  -315.168E+03,  -315.168E+03
C:/temp/Job-5.odb,Step-1,Increment      1: Step Time =    1.000,"P-5-1",           975,       116.657,       162.934,            0.,NA,NA,"",   2.47002E+06,   2.64187E+06,   2.64187E+06
C:/temp/Job-5.odb,Step-1,Increment      1: Step Time =    1.000,"P-5-1",           976,       161.817,       83.0622,            0.,NA,NA,"",   1.14522E+06,  -382.903E+03,  -382.903E+03
C:/temp/Job-5.odb,Step-1,Increment      1: Step Time =    1.000,"P-5-1",           977,       135.595,       163.119,            0.,NA,NA,"",   2.03396E+06,   2.04745E+06,   2.04745E+06
C:/temp/Job-5.odb,Step-1,Increment      1: Step Time =    1.000,"P-5-1",           978,       62.5899,       36.8671,            0.,NA,NA,"",   2.05953E+06,   1.87986E+06,   1.87986E+06
C:/temp/Job-5.odb,Step-1,Increment      1: Step Time =    1.000,"P-5-1",           979,       163.700,       64.3925,            0.,NA,NA,"",   1.78520E+06,   1.44650E+06,   1.44650E+06
C:/temp/Job-5.odb,Step-1,Increment      1: Step Time =    1.000,"P-5-1",           980,       34.7128,       137.740,            0.,NA,NA,"",   664.350E+03,   559.326E+03,   559.326E+03
C:/temp/Job-5.odb,Step-1,Increment      1: Step Time =    1.000,"P-5-1",           981,       163.147,       87.7907,            0.,NA,NA,"",   950.758E+03,  -699.598E+03,  -699.598E+03
C:/temp/Job-5.odb,Step-1,Increment      1: Step Time =    1.000,"P-5-1",           982,       111.480,       163.843,            0.,NA,NA,"",   2.51041E+06,   2.69307E+06,   2.69307E+06
C:/temp/Job-5.odb,Step-1,Increment      1: Step Time =    1.000,"P-5-1",           983,       90.2454,       30.5770,            0.,NA,NA,"",   2.22655E+06,   2.28723E+06,   2.28723E+06
C:/temp/Job-5.odb,Step-1,Increment      1: Step Time =    1.000,"P-5-1",           984,       30.8895,       108.376,            0.,NA,NA,"",   170.077E+03,  -190.673E+03,  -190.673E+03
C:/temp/Job-5.odb,Step-1,Increment      1: Step Time =    1.000,"P-5-1",           985,       86.7493,       164.681,            0.,NA,NA,"",   2.43619E+06,   2.49238E+06,   2.49238E+06
C:/temp/Job-5.odb,Step-1,Increment      1: Step Time =    1.000,"P-5-1",           986,       161.752,       115.132,            0.,NA,NA,"",   1.07169E+06,  -444.050E+03,  -444.050E+03
C:/temp/Job-5.odb,Step-1,Increment      1: Step Time =    1.000,"P-5-1",           987,       87.8207,       24.4188,            0.,NA,NA,"",   1.97126E+06,   1.98080E+06,   1.98080E+06
C:/temp/Job-5.odb,Step-1,Increment      1: Step Time =    1.000,"P-5-1",           988,       24.3977,       109.144,            0.,NA,NA,"",   109.836E+03,  -120.623E+03,  -120.623E+03
C:/temp/Job-5.odb,Step-1,Increment      1: Step Time =    1.000,"P-5-1",           989,       111.486,       174.493,            0.,NA,NA,"",   1.69814E+06,   1.82728E+06,   1.82728E+06
C:/temp/Job-5.odb,Step-1,Increment      1: Step Time =    1.000,"P-5-1",           990,       90.1694,       174.334,            0.,NA,NA,"",   1.99604E+06,   2.03339E+06,   2.03339E+06
C:/temp/Job-5.odb,Step-1,Increment      1: Step Time =    1.000,"P-5-1",           991,       175.135,       107.569,            0.,NA,NA,"",   643.594E+03,   690.368E+03,   690.368E+03
C:/temp/Job-5.odb,Step-1,Increment      1: Step Time =    1.000,"P-5-1",           992,       91.7336,       25.9496,            0.,NA,NA,"",   1.98965E+06,   2.03916E+06,   2.03916E+06
C:/temp/Job-5.odb,Step-1,Increment      1: Step Time =    1.000,"P-5-1",           993,       27.3038,       106.297,            0.,NA,NA,"",   130.714E+03,  -144.719E+03,  -144.719E+03
C:/temp/Job-5.odb,Step-1,Increment      1: Step Time =    1.000,"P-5-1",           994,       24.7747,       78.4418,            0.,NA,NA,"",   143.168E+03,   69.3107E+03,   69.3107E+03
C:/temp/Job-5.odb,Step-1,Increment      1: Step Time =    1.000,"P-5-1",           995,       78.1399,       24.0940,            0.,NA,NA,"",   2.04901E+06,   1.98213E+06,   1.98213E+06
C:/temp/Job-5.odb,Step-1,Increment      1: Step Time =    1.000,"P-5-1",           996,       22.6003,       122.862,            0.,NA,NA,"",   149.629E+03,   131.558E+03,   131.558E+03
C:/temp/Job-5.odb,Step-1,Increment      1: Step Time =    1.000,"P-5-1",           997,       80.0797,       175.465,            0.,NA,NA,"",   2.05600E+06,   2.00669E+06,   2.00669E+06
C:/temp/Job-5.odb,Step-1,Increment      1: Step Time =    1.000,"P-5-1",           998,       175.811,       80.5883,            0.,NA,NA,"",   1.16800E+06,   1.11859E+06,   1.11859E+06
C:/temp/Job-5.odb,Step-1,Increment      1: Step Time =    1.000,"P-5-1",           999,       121.793,       176.503,            0.,NA,NA,"",   1.53124E+06,   1.61784E+06,   1.61784E+06
C:/temp/Job-5.odb,Step-1,Increment      1: Step Time =    1.000,"P-5-1",          1000,       175.888,       99.7107,            0.,NA,NA,"",   465.203E+03,   522.537E+03,   522.537E+03
C:/temp/Job-5.odb,Step-1,Increment      1: Step Time =    1.000,"P-5-1",          1001,       100.687,       174.392,            0.,NA,NA,"",   1.84467E+06,   1.95394E+06,   1.95394E+06
C:/temp/Job-5.odb,Step-1,Increment      1: Step Time =    1.000,"P-5-1",          1002,       22.7435,       97.0281,            0.,NA,NA,"",   136.472E+03,  -145.252E+03,  -145.252E+03
C:/temp/Job-5.odb,Step-1,Increment      1: Step Time =    1.000,"P-5-1",          1003,       99.5582,       24.1900,            0.,NA,NA,"",   1.77398E+06,   1.86320E+06,   1.86320E+06
C:/temp/Job-5.odb,Step-1,Increment      1: Step Time =    1.000,"P-5-1",          1004,       23.5026,       139.858,            0.,NA,NA,"",   627.566E+03,   618.750E+03,   618.750E+03
C:/temp/Job-5.odb,Step-1,Increment      1: Step Time =    1.000,"P-5-1",          1005,       140.919,       25.8915,            0.,NA,NA,"",   1.59536E+06,   1.56951E+06,   1.56951E+06
C:/temp/Job-5.odb,Step-1,Increment      1: Step Time =    1.000,"P-5-1",          1006,       59.1848,       24.3672,            0.,NA,NA,"",   2.03387E+06,   1.90380E+06,   1.90380E+06
C:/temp/Job-5.odb,Step-1,Increment      1: Step Time =    1.000,"P-5-1",          1007,       23.6705,       55.1154,            0.,NA,NA,"",   784.382E+03,   779.088E+03,   779.088E+03
C:/temp/Job-5.odb,Step-1,Increment      1: Step Time =    1.000,"P-5-1",          1008,       174.636,       141.607,            0.,NA,NA,"",   1.57214E+06,   1.45354E+06,   1.45354E+06
C:/temp/Job-5.odb,Step-1,Increment      1: Step Time =    1.000,"P-5-1",          1009,       140.669,       175.191,            0.,NA,NA,"",   1.54746E+06,   1.52210E+06,   1.52210E+06
C:/temp/Job-5.odb,Step-1,Increment      1: Step Time =    1.000,"P-5-1",          1010,       57.4737,       175.121,            0.,NA,NA,"",   2.03460E+06,   1.90249E+06,   1.90249E+06
C:/temp/Job-5.odb,Step-1,Increment      1: Step Time =    1.000,"P-5-1",          1011,       175.104,       59.7972,            0.,NA,NA,"",   1.55357E+06,   1.44238E+06,   1.44238E+06
C:/temp/Job-5.odb,Step-1,Increment      1: Step Time =    1.000,"P-5-1",          1012,       71.2974,       24.3552,            0.,NA,NA,"",   2.07883E+06,   1.97150E+06,   1.97150E+06
C:/temp/Job-5.odb,Step-1,Increment      1: Step Time =    1.000,"P-5-1",          1013,       128.627,       174.855,            0.,NA,NA,"",   1.59528E+06,   1.64861E+06,   1.64861E+06
C:/temp/Job-5.odb,Step-1,Increment      1: Step Time =    1.000,"P-5-1",          1014,       24.4008,       128.713,            0.,NA,NA,"",   286.932E+03,   264.712E+03,   264.712E+03
C:/temp/Job-5.odb,Step-1,Increment      1: Step Time =    1.000,"P-5-1",          1015,       176.718,       70.7540,            0.,NA,NA,"",   1.42139E+06,   1.34497E+06,   1.34497E+06
C:/temp/Job-5.odb,Step-1,Increment      1: Step Time =    1.000,"P-5-1",          1016,       169.211,       14.6564,            0.,NA,NA,"",   1.11049E+06,   1.09404E+06,   1.09404E+06
C:/temp/Job-5.odb,Step-1,Increment      1: Step Time =    1.000,"P-5-1",          1017,       13.5169,       168.212,            0.,NA,NA,"",   1.43837E+06,   1.52204E+06,   1.52204E+06
C:/temp/Job-5.odb,Step-1,Increment      1: Step Time =    1.000,"P-5-1",          1018,       18.4388,       31.6184,            0.,NA,NA,"",   1.52320E+06,    1.5644E+06,    1.5644E+06
C:/temp/Job-5.odb,Step-1,Increment      1: Step Time =    1.000,"P-5-1",          1019,       31.1198,       12.8548,            0.,NA,NA,"",   2.10342E+06,   2.08710E+06,   2.08710E+06
C:/temp/Job-5.odb,Step-1,Increment      1: Step Time =    1.000,"P-5-1",          1020,       185.407,       169.130,            0.,NA,NA,"",   1.09314E+06,   1.10998E+06,   1.10998E+06
C:/temp/Job-5.odb,Step-1,Increment      1: Step Time =    1.000,"P-5-1",          1021,       166.049,       186.699,            0.,NA,NA,"",   1.09779E+06,   1.08113E+06,   1.08113E+06
C:/temp/Job-5.odb,Step-1,Increment      1: Step Time =    1.000,"P-5-1",          1022,       186.827,       33.9024,            0.,NA,NA,"",   1.07712E+06,   1.10665E+06,   1.10665E+06
C:/temp/Job-5.odb,Step-1,Increment      1: Step Time =    1.000,"P-5-1",          1023,       30.8756,       185.380,            0.,NA,NA,"",   2.07041E+06,   2.05159E+06,   2.05159E+06
C:/temp/Job-5.odb,Step-1,Increment      1: Step Time =    1.000,"P-5-1",          1024,       55.0294,       185.169,            0.,NA,NA,"",   1.97082E+06,   1.90447E+06,   1.90447E+06
C:/temp/Job-5.odb,Step-1,Increment      1: Step Time =    1.000,"P-5-1",          1025,       183.921,       54.0461,            0.,NA,NA,"",   1.26365E+06,   1.30530E+06,   1.30530E+06
C:/temp/Job-5.odb,Step-1,Increment      1: Step Time =    1.000,"P-5-1",          1026,       13.5057,       147.685,            0.,NA,NA,"",   795.547E+03,   847.239E+03,   847.239E+03
C:/temp/Job-5.odb,Step-1,Increment      1: Step Time =    1.000,"P-5-1",          1027,       144.935,       14.9110,            0.,NA,NA,"",   1.17748E+06,   1.15216E+06,   1.15216E+06
C:/temp/Job-5.odb,Step-1,Increment      1: Step Time =    1.000,"P-5-1",          1028,       13.4326,       53.2956,            0.,NA,NA,"",   766.592E+03,   816.584E+03,   816.584E+03
C:/temp/Job-5.odb,Step-1,Increment      1: Step Time =    1.000,"P-5-1",          1029,       54.4907,       15.3531,            0.,NA,NA,"",   1.97546E+06,   1.91024E+06,   1.91024E+06
C:/temp/Job-5.odb,Step-1,Increment      1: Step Time =    1.000,"P-5-1",          1030,       185.300,       144.829,            0.,NA,NA,"",   1.22658E+06,   1.29124E+06,   1.29124E+06
C:/temp/Job-5.odb,Step-1,Increment      1: Step Time =    1.000,"P-5-1",          1031,       145.731,       183.919,            0.,NA,NA,"",   1.22270E+06,   1.19251E+06,   1.19251E+06
C:/temp/Job-5.odb,Step-1,Increment      1: Step Time =    1.000,"P-5-1",          1032,       165.336,       128.834,            0.,NA,NA,"",   1.60318E+06,   1.23337E+06,   1.23337E+06
C:/temp/Job-5.odb,Step-1,Increment      1: Step Time =    1.000,"P-5-1",          1033,       120.343,       39.0913,            0.,NA,NA,"",   2.50968E+06,   2.67257E+06,   2.67257E+06
C:/temp/Job-5.odb,Step-1,Increment      1: Step Time =    1.000,"P-5-1",          1034,       66.5874,       166.943,            0.,NA,NA,"",   2.15063E+06,   1.99735E+06,   1.99735E+06
C:/temp/Job-5.odb,Step-1,Increment      1: Step Time =    1.000,"P-5-1",          1035,       40.9736,       80.3301,            0.,NA,NA,"",   364.863E+03,  -385.961E+03,  -385.961E+03
C:/temp/Job-5.odb,Step-1,Increment      1: Step Time =    1.000,"P-5-1",          1036,       33.5704,       68.3541,            0.,NA,NA,"",   441.281E+03,   343.400E+03,   343.400E+03
C:/temp/Job-5.odb,Step-1,Increment      1: Step Time =    1.000,"P-5-1",          1037,       62.7309,       165.434,            0.,NA,NA,"",   2.08740E+06,   1.91634E+06,   1.91634E+06
C:/temp/Job-5.odb,Step-1,Increment      1: Step Time =    1.000,"P-5-1",          1038,       138.553,       36.1483,            0.,NA,NA,"",   1.97157E+06,   1.95382E+06,   1.95382E+06
C:/temp/Job-5.odb,Step-1,Increment      1: Step Time =    1.000,"P-5-1",          1039,       36.4449,       60.4140,            0.,NA,NA,"",   752.691E+03,   633.756E+03,   633.756E+03
C:/temp/Job-5.odb,Step-1,Increment      1: Step Time =    1.000,"P-5-1",          1040,       163.882,       139.881,            0.,NA,NA,"",   1.83008E+06,   1.52782E+06,   1.52782E+06
C:/temp/Job-5.odb,Step-1,Increment      1: Step Time =    1.000,"P-5-1",          1041,       129.643,       164.422,            0.,NA,NA,"",   2.08033E+06,   2.15984E+06,   2.15984E+06
C:/temp/Job-5.odb,Step-1,Increment      1: Step Time =    1.000,"P-5-1",          1042,       65.9952,       33.2688,            0.,NA,NA,"",   2.12840E+06,   1.97404E+06,   1.97404E+06
C:/temp/Job-5.odb,Step-1,Increment      1: Step Time =    1.000,"P-5-1",          1043,       165.038,       70.8127,            0.,NA,NA,"",   1.60102E+06,   1.22331E+06,   1.22331E+06
C:/temp/Job-5.odb,Step-1,Increment      1: Step Time =    1.000,"P-5-1",          1044,       32.7729,       132.851,            0.,NA,NA,"",   470.959E+03,   378.320E+03,   378.320E+03
C:/temp/Job-5.odb,Step-1,Increment      1: Step Time =    1.000,"P-5-1",          1045,       152.370,       150.134,            0.,NA,NA,"",   2.01889E+06,   1.81061E+06,   1.81061E+06
C:/temp/Job-5.odb,Step-1,Increment      1: Step Time =    1.000,"P-5-1",          1046,       150.309,       47.7136,            0.,NA,NA,"",   2.03389E+06,   1.85324E+06,   1.85324E+06
C:/temp/Job-5.odb,Step-1,Increment      1: Step Time =    1.000,"P-5-1",          1047,       47.9681,       49.7432,            0.,NA,NA,"",   1.38426E+06,   1.18628E+06,   1.18628E+06
C:/temp/Job-5.odb,Step-1,Increment      1: Step Time =    1.000,"P-5-1",          1048,       50.3990,       151.508,            0.,NA,NA,"",   1.46974E+06,   1.26377E+06,   1.26377E+06
C:/temp/Job-5.odb,Step-1,Increment      1: Step Time =    1.000,"P-5-1",          1049,       120.466,       181.170,            0.,NA,NA,"",   1.28695E+06,   1.35441E+06,   1.35441E+06
C:/temp/Job-5.odb,Step-1,Increment      1: Step Time =    1.000,"P-5-1",          1050,       80.0276,       18.6138,            0.,NA,NA,"",   1.84903E+06,   1.79461E+06,   1.79461E+06
C:/temp/Job-5.odb,Step-1,Increment      1: Step Time =    1.000,"P-5-1",          1051,       179.624,       80.4021,            0.,NA,NA,"",   1.15051E+06,   1.19357E+06,   1.19357E+06
C:/temp/Job-5.odb,Step-1,Increment      1: Step Time =    1.000,"P-5-1",          1052,       18.5950,       121.703,            0.,NA,NA,"",   136.307E+03,   133.472E+03,   133.472E+03
C:/temp/Job-5.odb,Step-1,Increment      1: Step Time =    1.000,"P-5-1",          1053,       30.4049,       88.2149,            0.,NA,NA,"",   151.767E+03,  -171.618E+03,  -171.618E+03
C:/temp/Job-5.odb,Step-1,Increment      1: Step Time =    1.000,"P-5-1",          1054,       112.360,       29.8764,            0.,NA,NA,"",   1.96241E+06,   2.12095E+06,   2.12095E+06
C:/temp/Job-5.odb,Step-1,Increment      1: Step Time =    1.000,"P-5-1",          1055,       90.2283,       179.427,            0.,NA,NA,"",   1.75648E+06,   1.77085E+06,   1.77085E+06
C:/temp/Job-5.odb,Step-1,Increment      1: Step Time =    1.000,"P-5-1",          1056,       111.697,       26.2939,            0.,NA,NA,"",   1.74888E+06,   1.89032E+06,   1.89032E+06
C:/temp/Job-5.odb,Step-1,Increment      1: Step Time =    1.000,"P-5-1",          1057,       26.4139,       88.8817,            0.,NA,NA,"",   110.814E+03,  -122.924E+03,  -122.924E+03
C:/temp/Job-5.odb,Step-1,Increment      1: Step Time =    1.000,"P-5-1",          1058,       8.77065,       56.3580,            0.,NA,NA,"",   647.215E+03,   705.804E+03,   705.804E+03
C:/temp/Job-5.odb,Step-1,Increment      1: Step Time =    1.000,"P-5-1",          1059,       55.0718,       190.201,            0.,NA,NA,"",   1.94636E+06,   1.91093E+06,   1.91093E+06
C:/temp/Job-5.odb,Step-1,Increment      1: Step Time =    1.000,"P-5-1",          1060,       144.946,       9.76401,            0.,NA,NA,"",   984.299E+03,   968.571E+03,   968.571E+03
C:/temp/Job-5.odb,Step-1,Increment      1: Step Time =    1.000,"P-5-1",          1061,       190.348,       144.904,            0.,NA,NA,"",   1.06934E+06,   1.19093E+06,   1.19093E+06
C:/temp/Job-5.odb,Step-1,Increment      1: Step Time =    1.000,"P-5-1",          1062,       29.7944,       68.5717,            0.,NA,NA,"",   407.897E+03,   344.812E+03,   344.812E+03
C:/temp/Job-5.odb,Step-1,Increment      1: Step Time =    1.000,"P-5-1",          1063,       67.2579,       170.449,            0.,NA,NA,"",   2.13694E+06,   1.99559E+06,   1.99559E+06
C:/temp/Job-5.odb,Step-1,Increment      1: Step Time =    1.000,"P-5-1",          1064,       131.934,       28.0748,            0.,NA,NA,"",   1.72495E+06,   1.75964E+06,   1.75964E+06
C:/temp/Job-5.odb,Step-1,Increment      1: Step Time =    1.000,"P-5-1",          1065,       168.966,       131.788,            0.,NA,NA,"",   1.63142E+06,   1.35786E+06,   1.35786E+06
C:/temp/Job-5.odb,Step-1,Increment      1: Step Time =    1.000,"P-5-1",          1066,       96.7123,       24.8766,            0.,NA,NA,"",   1.84944E+06,   1.92758E+06,   1.92758E+06
C:/temp/Job-5.odb,Step-1,Increment      1: Step Time =    1.000,"P-5-1",          1067,       25.1186,       104.244,            0.,NA,NA,"",   127.414E+03,  -144.751E+03,  -144.751E+03
C:/temp/Job-5.odb,Step-1,Increment      1: Step Time =    1.000,"P-5-1",          1068,       174.644,       94.4209,            0.,NA,NA,"",   546.658E+03,   596.503E+03,   596.503E+03
C:/temp/Job-5.odb,Step-1,Increment      1: Step Time =    1.000,"P-5-1",          1069,       106.041,       174.393,            0.,NA,NA,"",   1.76830E+06,   1.89660E+06,   1.89660E+06
C:/temp/Job-5.odb,Step-1,Increment      1: Step Time =    1.000,"P-5-1",          1070,       95.4222,       174.383,            0.,NA,NA,"",   1.92366E+06,   2.00195E+06,   2.00195E+06
C:/temp/Job-5.odb,Step-1,Increment      1: Step Time =    1.000,"P-5-1",          1071,       174.881,       103.882,            0.,NA,NA,"",   491.052E+03,   547.101E+03,   547.101E+03
C:/temp/Job-5.odb,Step-1,Increment      1: Step Time =    1.000,"P-5-1",          1072,       86.0597,       28.7412,            0.,NA,NA,"",   2.17057E+06,   2.18242E+06,   2.18242E+06
C:/temp/Job-5.odb,Step-1,Increment      1: Step Time =    1.000,"P-5-1",          1073,       28.3692,       111.637,            0.,NA,NA,"",   120.652E+03,  -137.851E+03,  -137.851E+03
C:/temp/Job-5.odb,Step-1,Increment      1: Step Time =    1.000,"P-5-1",          1074,       24.9398,       113.913,            0.,NA,NA,"",   89.7460E+03,  -94.9747E+03,  -94.9747E+03
C:/temp/Job-5.odb,Step-1,Increment      1: Step Time =    1.000,"P-5-1",          1075,       29.9822,       83.4482,            0.,NA,NA,"",   138.803E+03,  -147.491E+03,  -147.491E+03
C:/temp/Job-5.odb,Step-1,Increment      1: Step Time =    1.000,"P-5-1",          1076,       81.9995,       26.7004,            0.,NA,NA,"",   2.11410E+06,   2.08001E+06,   2.08001E+06
C:/temp/Job-5.odb,Step-1,Increment      1: Step Time =    1.000,"P-5-1",          1077,       117.181,       28.6499,            0.,NA,NA,"",   1.84430E+06,   1.98223E+06,   1.98223E+06
C:/temp/Job-5.odb,Step-1,Increment      1: Step Time =    1.000,"P-5-1",          1078,       175.242,       117.420,            0.,NA,NA,"",   1.08948E+06,   1.03251E+06,   1.03251E+06
C:/temp/Job-5.odb,Step-1,Increment      1: Step Time =    1.000,"P-5-1",          1079,       84.9847,       174.462,            0.,NA,NA,"",   2.04547E+06,   2.03797E+06,   2.03797E+06
C:/temp/Job-5.odb,Step-1,Increment      1: Step Time =    1.000,"P-5-1",          1080,       173.449,       84.4870,            0.,NA,NA,"",   1.01912E+06,   928.492E+03,   928.492E+03
C:/temp/Job-5.odb,Step-1,Increment      1: Step Time =    1.000,"P-5-1",          1081,       116.859,       175.007,            0.,NA,NA,"",   1.62471E+06,   1.73783E+06,   1.73783E+06
C:/temp/Job-5.odb,Step-1,Increment      1: Step Time =    1.000,"P-5-1",          1082,       135.609,       26.4694,            0.,NA,NA,"",   1.64553E+06,   1.65027E+06,   1.65027E+06
C:/temp/Job-5.odb,Step-1,Increment      1: Step Time =    1.000,"P-5-1",          1083,       25.9368,       135.543,            0.,NA,NA,"",   505.712E+03,   477.764E+03,   477.764E+03
C:/temp/Job-5.odb,Step-1,Increment      1: Step Time =    1.000,"P-5-1",          1084,       24.1149,       57.8491,            0.,NA,NA,"",   716.516E+03,   708.078E+03,   708.078E+03
C:/temp/Job-5.odb,Step-1,Increment      1: Step Time =    1.000,"P-5-1",          1085,       64.2639,       26.1381,            0.,NA,NA,"",   2.08578E+06,   1.94735E+06,   1.94735E+06
C:/temp/Job-5.odb,Step-1,Increment      1: Step Time =    1.000,"P-5-1",          1086,       135.577,       173.278,            0.,NA,NA,"",   1.65321E+06,   1.66098E+06,   1.66098E+06
C:/temp/Job-5.odb,Step-1,Increment      1: Step Time =    1.000,"P-5-1",          1087,       172.848,       134.791,            0.,NA,NA,"",   1.59654E+06,   1.42181E+06,   1.42181E+06
C:/temp/Job-5.odb,Step-1,Increment      1: Step Time =    1.000,"P-5-1",          1088,       175.044,       65.6677,            0.,NA,NA,"",   1.53107E+06,   1.40807E+06,   1.40807E+06
C:/temp/Job-5.odb,Step-1,Increment      1: Step Time =    1.000,"P-5-1",          1089,       62.5882,       176.253,            0.,NA,NA,"",   2.05024E+06,   1.92331E+06,   1.92331E+06
C:/temp/Job-5.odb,Step-1,Increment      1: Step Time =    1.000,"P-5-1",          1090,       17.7978,       164.155,            0.,NA,NA,"",   1.36752E+06,   1.41413E+06,   1.41413E+06
C:/temp/Job-5.odb,Step-1,Increment      1: Step Time =    1.000,"P-5-1",          1091,       163.978,       18.9714,            0.,NA,NA,"",   1.22503E+06,   1.19019E+06,   1.19019E+06
C:/temp/Job-5.odb,Step-1,Increment      1: Step Time =    1.000,"P-5-1",          1092,       174.239,       15.1561,            0.,NA,NA,"",   1.08744E+06,   1.07800E+06,   1.07800E+06
C:/temp/Job-5.odb,Step-1,Increment      1: Step Time =    1.000,"P-5-1",          1093,       14.0115,       172.328,            0.,NA,NA,"",   1.58528E+06,   1.66538E+06,   1.66538E+06
C:/temp/Job-5.odb,Step-1,Increment      1: Step Time =    1.000,"P-5-1",          1094,       14.0263,       27.5856,            0.,NA,NA,"",   1.59767E+06,   1.67585E+06,   1.67585E+06
C:/temp/Job-5.odb,Step-1,Increment      1: Step Time =    1.000,"P-5-1",          1095,       27.3332,       13.0738,            0.,NA,NA,"",   2.11261E+06,   2.10364E+06,   2.10364E+06
C:/temp/Job-5.odb,Step-1,Increment      1: Step Time =    1.000,"P-5-1",          1096,       34.7837,       17.5357,            0.,NA,NA,"",   2.00554E+06,   1.96923E+06,   1.96923E+06
C:/temp/Job-5.odb,Step-1,Increment      1: Step Time =    1.000,"P-5-1",          1097,       19.5739,       35.5740,            0.,NA,NA,"",   1.40537E+06,   1.43735E+06,   1.43735E+06
C:/temp/Job-5.odb,Step-1,Increment      1: Step Time =    1.000,"P-5-1",          1098,       181.098,       163.896,            0.,NA,NA,"",   1.20819E+06,   1.20796E+06,   1.20796E+06
C:/temp/Job-5.odb,Step-1,Increment      1: Step Time =    1.000,"P-5-1",          1099,       162.507,       183.593,            0.,NA,NA,"",   1.17784E+06,   1.14870E+06,   1.14870E+06
C:/temp/Job-5.odb,Step-1,Increment      1: Step Time =    1.000,"P-5-1",          1100,       170.178,       186.404,            0.,NA,NA,"",   1.08730E+06,   1.07454E+06,   1.07454E+06
C:/temp/Job-5.odb,Step-1,Increment      1: Step Time =    1.000,"P-5-1",          1101,       184.936,       174.183,            0.,NA,NA,"",   1.07727E+06,   1.08637E+06,   1.08637E+06
C:/temp/Job-5.odb,Step-1,Increment      1: Step Time =    1.000,"P-5-1",          1102,       183.663,       37.2805,            0.,NA,NA,"",   1.15986E+06,   1.17800E+06,   1.17800E+06
C:/temp/Job-5.odb,Step-1,Increment      1: Step Time =    1.000,"P-5-1",          1103,       36.0021,       181.002,            0.,NA,NA,"",   1.98369E+06,   1.93999E+06,   1.93999E+06
C:/temp/Job-5.odb,Step-1,Increment      1: Step Time =    1.000,"P-5-1",          1104,       186.564,       29.7672,            0.,NA,NA,"",   1.06876E+06,   1.08884E+06,   1.08884E+06
C:/temp/Job-5.odb,Step-1,Increment      1: Step Time =    1.000,"P-5-1",          1105,       25.8746,       184.927,            0.,NA,NA,"",   2.07310E+06,   2.06915E+06,   2.06915E+06
C:/temp/Job-5.odb,Step-1,Increment      1: Step Time =    1.000,"P-5-1",          1106,       56.5601,       166.300,            0.,NA,NA,"",   2.00023E+06,   1.82746E+06,   1.82746E+06
C:/temp/Job-5.odb,Step-1,Increment      1: Step Time =    1.000,"P-5-1",          1107,       142.618,       33.5409,            0.,NA,NA,"",   1.84685E+06,   1.79588E+06,   1.79588E+06
C:/temp/Job-5.odb,Step-1,Increment      1: Step Time =    1.000,"P-5-1",          1108,       34.8971,       55.0044,            0.,NA,NA,"",   963.638E+03,   864.677E+03,   864.677E+03
C:/temp/Job-5.odb,Step-1,Increment      1: Step Time =    1.000,"P-5-1",          1109,       168.159,       142.226,            0.,NA,NA,"",   1.74896E+06,   1.52249E+06,   1.52249E+06
C:/temp/Job-5.odb,Step-1,Increment      1: Step Time =    1.000,"P-5-1",          1110,       27.1024,       93.2065,            0.,NA,NA,"",   134.305E+03,  -147.488E+03,  -147.488E+03
C:/temp/Job-5.odb,Step-1,Increment      1: Step Time =    1.000,"P-5-1",          1111,       103.018,       25.8856,            0.,NA,NA,"",   1.83134E+06,   1.95277E+06,   1.95277E+06
C:/temp/Job-5.odb,Step-1,Increment      1: Step Time =    1.000,"P-5-1",          1112,       26.7440,       124.171,            0.,NA,NA,"",   190.678E+03,   89.6823E+03,   89.6823E+03
C:/temp/Job-5.odb,Step-1,Increment      1: Step Time =    1.000,"P-5-1",          1113,       174.149,       77.0368,            0.,NA,NA,"",   1.29918E+06,   1.17911E+06,   1.17911E+06
C:/temp/Job-5.odb,Step-1,Increment      1: Step Time =    1.000,"P-5-1",          1114,       75.5313,       27.5334,            0.,NA,NA,"",   2.14557E+06,   2.06162E+06,   2.06162E+06
C:/temp/Job-5.odb,Step-1,Increment      1: Step Time =    1.000,"P-5-1",          1115,       126.260,       178.468,            0.,NA,NA,"",   1.42685E+06,   1.47996E+06,   1.47996E+06
C:/temp/Job-5.odb,Step-1,Increment      1: Step Time =    1.000,"P-5-1",          1116,       150.457,       43.4060,            0.,NA,NA,"",   1.98355E+06,   1.83238E+06,   1.83238E+06
C:/temp/Job-5.odb,Step-1,Increment      1: Step Time =    1.000,"P-5-1",          1117,       50.0088,       155.606,            0.,NA,NA,"",   1.63447E+06,   1.43924E+06,   1.43924E+06
C:/temp/Job-5.odb,Step-1,Increment      1: Step Time =    1.000,"P-5-1",          1118,       43.6319,       49.1109,            0.,NA,NA,"",   1.33483E+06,   1.16671E+06,   1.16671E+06
C:/temp/Job-5.odb,Step-1,Increment      1: Step Time =    1.000,"P-5-1",          1119,       156.586,       150.773,            0.,NA,NA,"",   1.95677E+06,   1.73457E+06,   1.73457E+06
C:/temp/Job-5.odb,Step-1,Increment      1: Step Time =    1.000,"P-5-1",          1120,       155.003,       47.4977,            0.,NA,NA,"",   1.96161E+06,   1.75526E+06,   1.75526E+06
C:/temp/Job-5.odb,Step-1,Increment      1: Step Time =    1.000,"P-5-1",          1121,       48.2114,       45.0878,            0.,NA,NA,"",   1.57941E+06,   1.39104E+06,   1.39104E+06
C:/temp/Job-5.odb,Step-1,Increment      1: Step Time =    1.000,"P-5-1",          1122,       46.1636,       151.329,            0.,NA,NA,"",   1.38569E+06,   1.19965E+06,   1.19965E+06
C:/temp/Job-5.odb,Step-1,Increment      1: Step Time =    1.000,"P-5-1",          1123,       152.067,       154.594,            0.,NA,NA,"",   1.99025E+06,   1.82082E+06,   1.82082E+06
C:/temp/Job-5.odb,Step-1,Increment      1: Step Time =    1.000,"P-5-1",          1124,       150.757,       159.544,            0.,NA,NA,"",   1.92478E+06,   1.79683E+06,   1.79683E+06
C:/temp/Job-5.odb,Step-1,Increment      1: Step Time =    1.000,"P-5-1",          1125,       160.583,       155.273,            0.,NA,NA,"",   1.82002E+06,   1.64218E+06,   1.64218E+06
C:/temp/Job-5.odb,Step-1,Increment      1: Step Time =    1.000,"P-5-1",          1126,       159.838,       47.3165,            0.,NA,NA,"",   1.86501E+06,   1.66305E+06,   1.66305E+06
C:/temp/Job-5.odb,Step-1,Increment      1: Step Time =    1.000,"P-5-1",          1127,       41.9540,       151.529,            0.,NA,NA,"",   1.32200E+06,   1.16735E+06,   1.16735E+06
C:/temp/Job-5.odb,Step-1,Increment      1: Step Time =    1.000,"P-5-1",          1128,       39.2567,       44.4811,            0.,NA,NA,"",   1.43065E+06,   1.30195E+06,   1.30195E+06
C:/temp/Job-5.odb,Step-1,Increment      1: Step Time =    1.000,"P-5-1",          1129,       48.1590,       40.1189,            0.,NA,NA,"",   1.73100E+06,   1.55803E+06,   1.55803E+06
C:/temp/Job-5.odb,Step-1,Increment      1: Step Time =    1.000,"P-5-1",          1130,       45.6949,       159.441,            0.,NA,NA,"",   1.67036E+06,   1.50555E+06,   1.50555E+06
C:/temp/Job-5.odb,Step-1,Increment      1: Step Time =    1.000,"P-5-1",          1131,       154.324,       39.1955,            0.,NA,NA,"",   1.82870E+06,   1.69328E+06,   1.69328E+06
C:/temp/Job-5.odb,Step-1,Increment      1: Step Time =    1.000,"P-5-1",          1132,       25.4853,       64.7404,            0.,NA,NA,"",   493.027E+03,   465.617E+03,   465.617E+03
C:/temp/Job-5.odb,Step-1,Increment      1: Step Time =    1.000,"P-5-1",          1133,       176.207,       130.881,            0.,NA,NA,"",   1.45834E+06,   1.36948E+06,   1.36948E+06
C:/temp/Job-5.odb,Step-1,Increment      1: Step Time =    1.000,"P-5-1",          1134,       134.634,       22.9694,            0.,NA,NA,"",   1.48524E+06,   1.48871E+06,   1.48871E+06
C:/temp/Job-5.odb,Step-1,Increment      1: Step Time =    1.000,"P-5-1",          1135,       68.3248,       174.877,            0.,NA,NA,"",   2.08879E+06,   1.96641E+06,   1.96641E+06
C:/temp/Job-5.odb,Step-1,Increment      1: Step Time =    1.000,"P-5-1",          1136,       34.8671,       22.7974,            0.,NA,NA,"",   1.91485E+06,   1.86232E+06,   1.86232E+06
C:/temp/Job-5.odb,Step-1,Increment      1: Step Time =    1.000,"P-5-1",          1137,       25.6845,       34.8551,            0.,NA,NA,"",   1.51045E+06,   1.49716E+06,   1.49716E+06
C:/temp/Job-5.odb,Step-1,Increment      1: Step Time =    1.000,"P-5-1",          1138,       21.3956,       164.253,            0.,NA,NA,"",   1.42415E+06,   1.44181E+06,   1.44181E+06
C:/temp/Job-5.odb,Step-1,Increment      1: Step Time =    1.000,"P-5-1",          1139,       163.700,       23.2430,            0.,NA,NA,"",   1.31425E+06,   1.26642E+06,   1.26642E+06
C:/temp/Job-5.odb,Step-1,Increment      1: Step Time =    1.000,"P-5-1",          1140,       176.000,       33.4968,            0.,NA,NA,"",   1.28791E+06,   1.25833E+06,   1.25833E+06
C:/temp/Job-5.odb,Step-1,Increment      1: Step Time =    1.000,"P-5-1",          1141,       36.3401,       176.478,            0.,NA,NA,"",   1.90936E+06,   1.85002E+06,   1.85002E+06
C:/temp/Job-5.odb,Step-1,Increment      1: Step Time =    1.000,"P-5-1",          1142,       176.780,       163.686,            0.,NA,NA,"",   1.31062E+06,   1.28017E+06,   1.28017E+06
C:/temp/Job-5.odb,Step-1,Increment      1: Step Time =    1.000,"P-5-1",          1143,       164.483,       173.704,            0.,NA,NA,"",   1.37600E+06,   1.31955E+06,   1.31955E+06
C:/temp/Job-5.odb,Step-1,Increment      1: Step Time =    1.000,"P-5-1",          1144,       100.757,       169.417,            0.,NA,NA,"",   2.15707E+06,   2.29862E+06,   2.29862E+06
C:/temp/Job-5.odb,Step-1,Increment      1: Step Time =    1.000,"P-5-1",          1145,       170.938,       97.5396,            0.,NA,NA,"",   414.830E+03,   258.301E+03,   258.301E+03
C:/temp/Job-5.odb,Step-1,Increment      1: Step Time =    1.000,"P-5-1",          1146,       176.562,       111.477,            0.,NA,NA,"",   829.393E+03,   875.461E+03,   875.461E+03
C:/temp/Job-5.odb,Step-1,Increment      1: Step Time =    1.000,"P-5-1",          1147,       24.4295,       72.9455,            0.,NA,NA,"",   256.816E+03,   229.950E+03,   229.950E+03
C:/temp/Job-5.odb,Step-1,Increment      1: Step Time =    1.000,"P-5-1",          1148,       73.6257,       173.175,            0.,NA,NA,"",   2.12978E+06,   2.02985E+06,   2.02985E+06
C:/temp/Job-5.odb,Step-1,Increment      1: Step Time =    1.000,"P-5-1",          1149,       129.307,       23.8507,            0.,NA,NA,"",   1.53617E+06,   1.57595E+06,   1.57595E+06
C:/temp/Job-5.odb,Step-1,Increment      1: Step Time =    1.000,"P-5-1",          1150,       177.358,       126.803,            0.,NA,NA,"",   1.36456E+06,   1.31661E+06,   1.31661E+06
C:/temp/Job-5.odb,Step-1,Increment      1: Step Time =    1.000,"P-5-1",          1151,       111.901,       169.139,            0.,NA,NA,"",   2.04923E+06,   2.21028E+06,   2.21028E+06
C:/temp/Job-5.odb,Step-1,Increment      1: Step Time =    1.000,"P-5-1",          1152,       30.1824,       78.2562,            0.,NA,NA,"",   179.815E+03,  -72.2353E+03,  -72.2353E+03
C:/temp/Job-5.odb,Step-1,Increment      1: Step Time =    1.000,"P-5-1",          1153,       123.597,       28.1256,            0.,NA,NA,"",   1.76451E+06,   1.86184E+06,   1.86184E+06
C:/temp/Job-5.odb,Step-1,Increment      1: Step Time =    1.000,"P-5-1",          1154,       171.521,       120.548,            0.,NA,NA,"",   1.24515E+06,   1.05086E+06,   1.05086E+06
C:/temp/Job-5.odb,Step-1,Increment      1: Step Time =    1.000,"P-5-1",          1155,       78.5777,       170.893,            0.,NA,NA,"",   2.18372E+06,   2.12898E+06,   2.12898E+06
C:/temp/Job-5.odb,Step-1,Increment      1: Step Time =    1.000,"P-5-1",          1156,       170.349,       79.4711,            0.,NA,NA,"",   1.25498E+06,   1.01990E+06,   1.01990E+06
C:/temp/Job-5.odb,Step-1,Increment      1: Step Time =    1.000,"P-5-1",          1157,       123.840,       172.146,            0.,NA,NA,"",   1.74727E+06,   1.84216E+06,   1.84216E+06
C:/temp/Job-5.odb,Step-1,Increment      1: Step Time =    1.000,"P-5-1",          1158,       139.064,       30.6626,            0.,NA,NA,"",   1.80489E+06,   1.78770E+06,   1.78770E+06
C:/temp/Job-5.odb,Step-1,Increment      1: Step Time =    1.000,"P-5-1",          1159,       26.8779,       142.635,            0.,NA,NA,"",   761.357E+03,   728.955E+03,   728.955E+03
C:/temp/Job-5.odb,Step-1,Increment      1: Step Time =    1.000,"P-5-1",          1160,       58.8425,       29.1139,            0.,NA,NA,"",   2.05509E+06,   1.89883E+06,   1.89883E+06
C:/temp/Job-5.odb,Step-1,Increment      1: Step Time =    1.000,"P-5-1",          1161,       27.0557,       57.4467,            0.,NA,NA,"",   749.367E+03,   718.753E+03,   718.753E+03
C:/temp/Job-5.odb,Step-1,Increment      1: Step Time =    1.000,"P-5-1",          1162,       141.591,       170.373,            0.,NA,NA,"",   1.73596E+06,   1.69980E+06,   1.69980E+06
C:/temp/Job-5.odb,Step-1,Increment      1: Step Time =    1.000,"P-5-1",          1163,       170.360,       138.618,            0.,NA,NA,"",   1.68846E+06,   1.47493E+06,   1.47493E+06
C:/temp/Job-5.odb,Step-1,Increment      1: Step Time =    1.000,"P-5-1",          1164,       169.397,       60.3081,            0.,NA,NA,"",   1.71294E+06,   1.49138E+06,   1.49138E+06
C:/temp/Job-5.odb,Step-1,Increment      1: Step Time =    1.000,"P-5-1",          1165,       57.9812,       171.070,            0.,NA,NA,"",   2.04320E+06,   1.88911E+06,   1.88911E+06
C:/temp/Job-5.odb,Step-1,Increment      1: Step Time =    1.000,"P-5-1",          1166,       174.604,       10.0736,            0.,NA,NA,"",   1.02983E+06,   1.02529E+06,   1.02529E+06
C:/temp/Job-5.odb,Step-1,Increment      1: Step Time =    1.000,"P-5-1",          1167,       173.503,       20.1781,            0.,NA,NA,"",   1.15638E+06,   1.13897E+06,   1.13897E+06
C:/temp/Job-5.odb,Step-1,Increment      1: Step Time =    1.000,"P-5-1",          1168,       19.5619,       173.327,            0.,NA,NA,"",   1.68774E+06,   1.72315E+06,   1.72315E+06
C:/temp/Job-5.odb,Step-1,Increment      1: Step Time =    1.000,"P-5-1",          1169,       159.232,       19.0651,            0.,NA,NA,"",   1.26248E+06,   1.22212E+06,   1.22212E+06
C:/temp/Job-5.odb,Step-1,Increment      1: Step Time =    1.000,"P-5-1",          1170,       14.2191,       158.660,            0.,NA,NA,"",   1.14602E+06,   1.21091E+06,   1.21091E+06
C:/temp/Job-5.odb,Step-1,Increment      1: Step Time =    1.000,"P-5-1",          1171,       39.0010,       13.4898,            0.,NA,NA,"",   2.05538E+06,   2.02360E+06,   2.02360E+06
C:/temp/Job-5.odb,Step-1,Increment      1: Step Time =    1.000,"P-5-1",          1172,       16.3474,       44.5319,            0.,NA,NA,"",   1.06460E+06,   1.11161E+06,   1.11161E+06
C:/temp/Job-5.odb,Step-1,Increment      1: Step Time =    1.000,"P-5-1",          1173,       28.1329,       17.0871,            0.,NA,NA,"",   2.01092E+06,   1.99734E+06,   1.99734E+06
C:/temp/Job-5.odb,Step-1,Increment      1: Step Time =    1.000,"P-5-1",          1174,       17.7522,       28.3460,            0.,NA,NA,"",   1.62752E+06,   1.67521E+06,   1.67521E+06
C:/temp/Job-5.odb,Step-1,Increment      1: Step Time =    1.000,"P-5-1",          1175,       9.48014,       30.9964,            0.,NA,NA,"",   1.40214E+06,   1.51420E+06,   1.51420E+06
C:/temp/Job-5.odb,Step-1,Increment      1: Step Time =    1.000,"P-5-1",          1176,       158.358,       186.123,            0.,NA,NA,"",   1.13361E+06,   1.10725E+06,   1.10725E+06
C:/temp/Job-5.odb,Step-1,Increment      1: Step Time =    1.000,"P-5-1",          1177,       181.026,       159.222,            0.,NA,NA,"",   1.24963E+06,   1.24884E+06,   1.24884E+06
C:/temp/Job-5.odb,Step-1,Increment      1: Step Time =    1.000,"P-5-1",          1178,       180.082,       173.430,            0.,NA,NA,"",   1.14321E+06,   1.13993E+06,   1.13993E+06
C:/temp/Job-5.odb,Step-1,Increment      1: Step Time =    1.000,"P-5-1",          1179,       169.578,       182.154,            0.,NA,NA,"",   1.14899E+06,   1.12874E+06,   1.12874E+06
C:/temp/Job-5.odb,Step-1,Increment      1: Step Time =    1.000,"P-5-1",          1180,       189.953,       174.570,            0.,NA,NA,"",   1.02840E+06,   1.04272E+06,   1.04272E+06
C:/temp/Job-5.odb,Step-1,Increment      1: Step Time =    1.000,"P-5-1",          1181,       182.582,       30.3222,            0.,NA,NA,"",   1.12671E+06,   1.13627E+06,   1.13627E+06
C:/temp/Job-5.odb,Step-1,Increment      1: Step Time =    1.000,"P-5-1",          1182,       26.8022,       180.060,            0.,NA,NA,"",   1.94897E+06,   1.93890E+06,   1.93890E+06
C:/temp/Job-5.odb,Step-1,Increment      1: Step Time =    1.000,"P-5-1",          1183,       25.4420,       189.918,            0.,NA,NA,"",   2.19111E+06,   2.18879E+06,   2.18879E+06
C:/temp/Job-5.odb,Step-1,Increment      1: Step Time =    1.000,"P-5-1",          1184,       185.952,       41.5480,            0.,NA,NA,"",   1.13389E+06,   1.17399E+06,   1.17399E+06
C:/temp/Job-5.odb,Step-1,Increment      1: Step Time =    1.000,"P-5-1",          1185,       40.6260,       181.121,            0.,NA,NA,"",   1.98757E+06,   1.93080E+06,   1.93080E+06
C:/temp/Job-5.odb,Step-1,Increment      1: Step Time =    1.000,"P-5-1",          1186,       154.657,       9.61739,            0.,NA,NA,"",   1.02450E+06,   1.00820E+06,   1.00820E+06
C:/temp/Job-5.odb,Step-1,Increment      1: Step Time =    1.000,"P-5-1",          1187,       45.2856,       190.429,            0.,NA,NA,"",   2.05863E+06,   2.03415E+06,   2.03415E+06
C:/temp/Job-5.odb,Step-1,Increment      1: Step Time =    1.000,"P-5-1",          1188,       190.434,       154.656,            0.,NA,NA,"",   1.03521E+06,   1.11852E+06,   1.11852E+06
C:/temp/Job-5.odb,Step-1,Increment      1: Step Time =    1.000,"P-5-1",          1189,       27.4417,       97.6929,            0.,NA,NA,"",   147.715E+03,  -162.462E+03,  -162.462E+03
C:/temp/Job-5.odb,Step-1,Increment      1: Step Time =    1.000,"P-5-1",          1190,       28.5392,       130.886,            0.,NA,NA,"",   374.990E+03,   321.160E+03,   321.160E+03
C:/temp/Job-5.odb,Step-1,Increment      1: Step Time =    1.000,"P-5-1",          1191,       172.032,       72.3721,            0.,NA,NA,"",   1.47259E+06,   1.27130E+06,   1.27130E+06
C:/temp/Job-5.odb,Step-1,Increment      1: Step Time =    1.000,"P-5-1",          1192,       68.6967,       28.7987,            0.,NA,NA,"",   2.14067E+06,   2.00953E+06,   2.00953E+06
C:/temp/Job-5.odb,Step-1,Increment      1: Step Time =    1.000,"P-5-1",          1193,       131.007,       170.922,            0.,NA,NA,"",   1.76545E+06,   1.81374E+06,   1.81374E+06
C:/temp/Job-5.odb,Step-1,Increment      1: Step Time =    1.000,"P-5-1",          1194,       79.7862,       30.3001,            0.,NA,NA,"",   2.21819E+06,   2.17529E+06,   2.17529E+06
C:/temp/Job-5.odb,Step-1,Increment      1: Step Time =    1.000,"P-5-1",          1195,       28.2426,       118.797,            0.,NA,NA,"",   124.283E+03,  -76.7835E+03,  -76.7835E+03
C:/temp/Job-5.odb,Step-1,Increment      1: Step Time =    1.000,"P-5-1",          1196,       154.541,       14.4973,            0.,NA,NA,"",   1.15738E+06,   1.12848E+06,   1.12848E+06
C:/temp/Job-5.odb,Step-1,Increment      1: Step Time =    1.000,"P-5-1",          1197,       14.9398,       50.0484,            0.,NA,NA,"",   875.110E+03,   922.127E+03,   922.127E+03
C:/temp/Job-5.odb,Step-1,Increment      1: Step Time =    1.000,"P-5-1",          1198,       185.614,       154.530,            0.,NA,NA,"",   1.15800E+06,   1.20481E+06,   1.20481E+06
C:/temp/Job-5.odb,Step-1,Increment      1: Step Time =    1.000,"P-5-1",          1199,       45.3431,       185.666,            0.,NA,NA,"",   2.01936E+06,   1.97343E+06,   1.97343E+06
C:/temp/Job-5.odb,Step-1,Increment      1: Step Time =    1.000,"P-5-1",          1200,       145.581,       165.195,            0.,NA,NA,"",   1.85216E+06,   1.77945E+06,   1.77945E+06
C:/temp/Job-5.odb,Step-1,Increment      1: Step Time =    1.000,"P-5-1",          1201,       156.308,       155.196,            0.,NA,NA,"",   1.91065E+06,   1.72912E+06,   1.72912E+06
C:/temp/Job-5.odb,Step-1,Increment      1: Step Time =    1.000,"P-5-1",          1202,       165.854,       151.579,            0.,NA,NA,"",   1.75576E+06,   1.57245E+06,   1.57245E+06
C:/temp/Job-5.odb,Step-1,Increment      1: Step Time =    1.000,"P-5-1",          1203,       154.769,       43.2370,            0.,NA,NA,"",   1.90483E+06,   1.73711E+06,   1.73711E+06
C:/temp/Job-5.odb,Step-1,Increment      1: Step Time =    1.000,"P-5-1",          1204,       45.9254,       155.517,            0.,NA,NA,"",   1.54566E+06,   1.36992E+06,   1.36992E+06
C:/temp/Job-5.odb,Step-1,Increment      1: Step Time =    1.000,"P-5-1",          1205,       37.7023,       148.504,            0.,NA,NA,"",   1.14098E+06,   1.01733E+06,   1.01733E+06
C:/temp/Job-5.odb,Step-1,Increment      1: Step Time =    1.000,"P-5-1",          1206,       35.8105,       48.5492,            0.,NA,NA,"",   1.20462E+06,   1.09908E+06,   1.09908E+06
C:/temp/Job-5.odb,Step-1,Increment      1: Step Time =    1.000,"P-5-1",          1207,       43.6626,       44.6249,            0.,NA,NA,"",   1.50658E+06,   1.34386E+06,   1.34386E+06
C:/temp/Job-5.odb,Step-1,Increment      1: Step Time =    1.000,"P-5-1",          1208,       52.6947,       35.7414,            0.,NA,NA,"",   1.90764E+06,   1.73489E+06,   1.73489E+06
C:/temp/Job-5.odb,Step-1,Increment      1: Step Time =    1.000,"P-5-1",          1209,       49.2544,       162.345,            0.,NA,NA,"",   1.81662E+06,   1.64176E+06,   1.64176E+06
C:/temp/Job-5.odb,Step-1,Increment      1: Step Time =    1.000,"P-5-1",          1210,       150.979,       34.6094,            0.,NA,NA,"",   1.77192E+06,   1.67252E+06,   1.67252E+06
C:/temp/Job-5.odb,Step-1,Increment      1: Step Time =    1.000,"P-5-1",          1211,       29.5198,       30.8244,            0.,NA,NA,"",   1.68350E+06,   1.64488E+06,   1.64488E+06
C:/temp/Job-5.odb,Step-1,Increment      1: Step Time =    1.000,"P-5-1",          1212,       25.0403,       23.3686,            0.,NA,NA,"",   1.84669E+06,   1.84499E+06,   1.84499E+06
C:/temp/Job-5.odb,Step-1,Increment      1: Step Time =    1.000,"P-5-1",          1213,       166.915,       27.3065,            0.,NA,NA,"",   1.35577E+06,   1.30168E+06,   1.30168E+06
C:/temp/Job-5.odb,Step-1,Increment      1: Step Time =    1.000,"P-5-1",          1214,       25.0006,       169.371,            0.,NA,NA,"",   1.62654E+06,   1.62179E+06,   1.62179E+06
C:/temp/Job-5.odb,Step-1,Increment      1: Step Time =    1.000,"P-5-1",          1215,       172.228,       30.9755,            0.,NA,NA,"",   1.32884E+06,   1.28469E+06,   1.28469E+06
C:/temp/Job-5.odb,Step-1,Increment      1: Step Time =    1.000,"P-5-1",          1216,       32.7572,       171.572,            0.,NA,NA,"",   1.77752E+06,   1.72258E+06,   1.72258E+06
C:/temp/Job-5.odb,Step-1,Increment      1: Step Time =    1.000,"P-5-1",          1217,       172.613,       167.039,            0.,NA,NA,"",   1.35276E+06,   1.30539E+06,   1.30539E+06
C:/temp/Job-5.odb,Step-1,Increment      1: Step Time =    1.000,"P-5-1",          1218,       170.286,       173.821,            0.,NA,NA,"",   1.28361E+06,   1.24633E+06,   1.24633E+06
C:/temp/Job-5.odb,Step-1,Increment      1: Step Time =    1.000,"P-5-1",          1219,       174.896,       123.968,            0.,NA,NA,"",   1.33696E+06,   1.23486E+06,   1.23486E+06
C:/temp/Job-5.odb,Step-1,Increment      1: Step Time =    1.000,"P-5-1",          1220,       23.5855,       146.568,            0.,NA,NA,"",   854.921E+03,   848.512E+03,   848.512E+03
C:/temp/Job-5.odb,Step-1,Increment      1: Step Time =    1.000,"P-5-1",          1221,       145.057,       28.6409,            0.,NA,NA,"",   1.66831E+06,   1.61299E+06,   1.61299E+06
C:/temp/Job-5.odb,Step-1,Increment      1: Step Time =    1.000,"P-5-1",          1222,       54.2767,       25.5904,            0.,NA,NA,"",   2.00379E+06,   1.87575E+06,   1.87575E+06
C:/temp/Job-5.odb,Step-1,Increment      1: Step Time =    1.000,"P-5-1",          1223,       25.9855,       52.9756,            0.,NA,NA,"",   893.344E+03,   870.776E+03,   870.776E+03
C:/temp/Job-5.odb,Step-1,Increment      1: Step Time =    1.000,"P-5-1",          1224,       145.506,       174.406,            0.,NA,NA,"",   1.54538E+06,   1.49545E+06,   1.49545E+06
C:/temp/Job-5.odb,Step-1,Increment      1: Step Time =    1.000,"P-5-1",          1225,       172.111,       145.138,            0.,NA,NA,"",   1.63185E+06,   1.48482E+06,   1.48482E+06
C:/temp/Job-5.odb,Step-1,Increment      1: Step Time =    1.000,"P-5-1",          1226,       173.351,       54.7229,            0.,NA,NA,"",   1.58895E+06,   1.46693E+06,   1.46693E+06
C:/temp/Job-5.odb,Step-1,Increment      1: Step Time =    1.000,"P-5-1",          1227,       54.4587,       172.916,            0.,NA,NA,"",   2.01106E+06,   1.87036E+06,   1.87036E+06
C:/temp/Job-5.odb,Step-1,Increment      1: Step Time =    1.000,"P-5-1",          1228,       15.6410,       175.595,            0.,NA,NA,"",   1.72131E+06,   1.78697E+06,   1.78697E+06
C:/temp/Job-5.odb,Step-1,Increment      1: Step Time =    1.000,"P-5-1",          1229,       179.327,       15.6549,            0.,NA,NA,"",   1.06092E+06,   1.05822E+06,   1.05822E+06
C:/temp/Job-5.odb,Step-1,Increment      1: Step Time =    1.000,"P-5-1",          1230,       24.0689,       13.9600,            0.,NA,NA,"",   2.09291E+06,   2.09722E+06,   2.09722E+06
C:/temp/Job-5.odb,Step-1,Increment      1: Step Time =    1.000,"P-5-1",          1231,       15.1562,       24.2899,            0.,NA,NA,"",   1.72234E+06,   1.79099E+06,   1.79099E+06
C:/temp/Job-5.odb,Step-1,Increment      1: Step Time =    1.000,"P-5-1",          1232,       184.444,       179.339,            0.,NA,NA,"",   1.05795E+06,   1.06200E+06,   1.06200E+06
C:/temp/Job-5.odb,Step-1,Increment      1: Step Time =    1.000,"P-5-1",          1233,       174.708,       185.715,            0.,NA,NA,"",   1.07305E+06,   1.06551E+06,   1.06551E+06
C:/temp/Job-5.odb,Step-1,Increment      1: Step Time =    1.000,"P-5-1",          1234,       185.822,       25.3354,            0.,NA,NA,"",   1.06255E+06,   1.07397E+06,   1.07397E+06
C:/temp/Job-5.odb,Step-1,Increment      1: Step Time =    1.000,"P-5-1",          1235,       20.3392,       184.174,            0.,NA,NA,"",   2.06203E+06,   2.08181E+06,   2.08181E+06
C:/temp/Job-5.odb,Step-1,Increment      1: Step Time =    1.000,"P-5-1",          1236,       45.3315,       181.021,            0.,NA,NA,"",   1.99064E+06,   1.92049E+06,   1.92049E+06
C:/temp/Job-5.odb,Step-1,Increment      1: Step Time =    1.000,"P-5-1",          1237,       180.812,       154.512,            0.,NA,NA,"",   1.29183E+06,   1.29041E+06,   1.29041E+06
C:/temp/Job-5.odb,Step-1,Increment      1: Step Time =    1.000,"P-5-1",          1238,       18.0857,       48.3448,            0.,NA,NA,"",   955.680E+03,   989.713E+03,   989.713E+03
C:/temp/Job-5.odb,Step-1,Increment      1: Step Time =    1.000,"P-5-1",          1239,       154.531,       19.4111,            0.,NA,NA,"",   1.29694E+06,   1.25396E+06,   1.25396E+06
C:/temp/Job-5.odb,Step-1,Increment      1: Step Time =    1.000,"P-5-1",          1240,       180.296,       42.8062,            0.,NA,NA,"",   1.29209E+06,   1.28128E+06,   1.28128E+06
C:/temp/Job-5.odb,Step-1,Increment      1: Step Time =    1.000,"P-5-1",          1241,       156.836,       181.079,            0.,NA,NA,"",   1.26772E+06,   1.22732E+06,   1.22732E+06
C:/temp/Job-5.odb,Step-1,Increment      1: Step Time =    1.000,"P-5-1",          1242,       43.2803,       14.5306,            0.,NA,NA,"",   2.02459E+06,   1.97955E+06,   1.97955E+06
C:/temp/Job-5.odb,Step-1,Increment      1: Step Time =    1.000,"P-5-1",          1243,       18.1049,       155.780,            0.,NA,NA,"",   1.10219E+06,   1.13893E+06,   1.13893E+06
C:/temp/Job-5.odb,Step-1,Increment      1: Step Time =    1.000,"P-5-1",          1244,       174.129,       175.306,            0.,NA,NA,"",   1.20810E+06,   1.18617E+06,   1.18617E+06
C:/temp/Job-5.odb,Step-1,Increment      1: Step Time =    1.000,"P-5-1",          1245,       175.581,       171.866,            0.,NA,NA,"",   1.22334E+06,   1.20257E+06,   1.20257E+06
C:/temp/Job-5.odb,Step-1,Increment      1: Step Time =    1.000,"P-5-1",          1246,       175.117,       26.7635,            0.,NA,NA,"",   1.21739E+06,   1.19597E+06,   1.19597E+06
C:/temp/Job-5.odb,Step-1,Increment      1: Step Time =    1.000,"P-5-1",          1247,       27.8010,       175.277,            0.,NA,NA,"",   1.82536E+06,   1.80586E+06,   1.80586E+06
C:/temp/Job-5.odb,Step-1,Increment      1: Step Time =    1.000,"P-5-1",          1248,       23.6994,       174.320,            0.,NA,NA,"",   1.76245E+06,   1.76877E+06,   1.76877E+06
C:/temp/Job-5.odb,Step-1,Increment      1: Step Time =    1.000,"P-5-1",          1249,       171.695,       24.7641,            0.,NA,NA,"",   1.24327E+06,   1.21249E+06,   1.21249E+06
C:/temp/Job-5.odb,Step-1,Increment      1: Step Time =    1.000,"P-5-1",          1250,       23.5639,       20.6783,            0.,NA,NA,"",   1.93529E+06,   1.94041E+06,   1.94041E+06
C:/temp/Job-5.odb,Step-1,Increment      1: Step Time =    1.000,"P-5-1",          1251,       19.7053,       25.0507,            0.,NA,NA,"",   1.73782E+06,   1.77653E+06,   1.77653E+06
C:/temp/Job-5.odb,Step-1,Increment      1: Step Time =    1.000,"P-5-1",          1252,       98.4719,       25.8119,            0.,NA,NA,"",   1.89332E+06,   1.99207E+06,   1.99207E+06
C:/temp/Job-5.odb,Step-1,Increment      1: Step Time =    1.000,"P-5-1",          1253,       25.8138,       101.473,            0.,NA,NA,"",   134.982E+03,  -152.269E+03,  -152.269E+03
C:/temp/Job-5.odb,Step-1,Increment      1: Step Time =    1.000,"P-5-1",          1254,       26.9165,       150.573,            0.,NA,NA,"",   1.04135E+06,   1.01038E+06,   1.01038E+06
C:/temp/Job-5.odb,Step-1,Increment      1: Step Time =    1.000,"P-5-1",          1255,       149.245,       24.7726,            0.,NA,NA,"",   1.50524E+06,   1.44963E+06,   1.44963E+06
C:/temp/Job-5.odb,Step-1,Increment      1: Step Time =    1.000,"P-5-1",          1256,       21.9652,       51.3789,            0.,NA,NA,"",   899.467E+03,   904.976E+03,   904.976E+03
C:/temp/Job-5.odb,Step-1,Increment      1: Step Time =    1.000,"P-5-1",          1257,       50.7405,       22.4741,            0.,NA,NA,"",   1.99516E+06,   1.89281E+06,   1.89281E+06
C:/temp/Job-5.odb,Step-1,Increment      1: Step Time =    1.000,"P-5-1",          1258,       178.393,       48.7756,            0.,NA,NA,"",   1.41017E+06,   1.36784E+06,   1.36784E+06
C:/temp/Job-5.odb,Step-1,Increment      1: Step Time =    1.000,"P-5-1",          1259,       50.6035,       176.237,            0.,NA,NA,"",   1.98989E+06,   1.87616E+06,   1.87616E+06
C:/temp/Job-5.odb,Step-1,Increment      1: Step Time =    1.000,"P-5-1",          1260,       151.467,       177.519,            0.,NA,NA,"",   1.41964E+06,   1.36740E+06,   1.36740E+06
C:/temp/Job-5.odb,Step-1,Increment      1: Step Time =    1.000,"P-5-1",          1261,       175.984,       149.108,            0.,NA,NA,"",   1.49748E+06,   1.42040E+06,   1.42040E+06
C:/temp/Job-5.odb,Step-1,Increment      1: Step Time =    1.000,"P-5-1",          1262,       19.4075,       14.6280,            0.,NA,NA,"",   2.09164E+06,   2.11161E+06,   2.11161E+06
C:/temp/Job-5.odb,Step-1,Increment      1: Step Time =    1.000,"P-5-1",          1263,       16.3082,       181.371,            0.,NA,NA,"",   1.94396E+06,   1.99760E+06,   1.99760E+06
C:/temp/Job-5.odb,Step-1,Increment      1: Step Time =    1.000,"P-5-1",          1264,       184.899,       20.6296,            0.,NA,NA,"",   1.05176E+06,   1.05712E+06,   1.05712E+06
C:/temp/Job-5.odb,Step-1,Increment      1: Step Time =    1.000,"P-5-1",          1265,       179.475,       184.885,            0.,NA,NA,"",   1.05578E+06,   1.05333E+06,   1.05333E+06
C:/temp/Job-5.odb,Step-1,Increment      1: Step Time =    1.000,"P-5-1",          1266,       185.482,       149.648,            0.,NA,NA,"",   1.19287E+06,   1.24805E+06,   1.24805E+06
C:/temp/Job-5.odb,Step-1,Increment      1: Step Time =    1.000,"P-5-1",          1267,       50.2247,       185.480,            0.,NA,NA,"",   1.99578E+06,   1.93952E+06,   1.93952E+06
C:/temp/Job-5.odb,Step-1,Increment      1: Step Time =    1.000,"P-5-1",          1268,       149.697,       14.7006,            0.,NA,NA,"",   1.17180E+06,   1.14241E+06,   1.14241E+06
C:/temp/Job-5.odb,Step-1,Increment      1: Step Time =    1.000,"P-5-1",          1269,       17.1786,       52.0743,            0.,NA,NA,"",   837.462E+03,   869.837E+03,   869.837E+03
C:/temp/Job-5.odb,Step-1,Increment      1: Step Time =    1.000,"P-5-1",          1270,       19.6849,       78.7053,            0.,NA,NA,"",   135.283E+03,   121.491E+03,   121.491E+03
C:/temp/Job-5.odb,Step-1,Increment      1: Step Time =    1.000,"P-5-1",          1271,       151.182,       165.144,            0.,NA,NA,"",   1.77492E+06,   1.67418E+06,   1.67418E+06
C:/temp/Job-5.odb,Step-1,Increment      1: Step Time =    1.000,"P-5-1",          1272,       164.366,       148.139,            0.,NA,NA,"",   1.82832E+06,   1.60337E+06,   1.60337E+06
C:/temp/Job-5.odb,Step-1,Increment      1: Step Time =    1.000,"P-5-1",          1273,       164.175,       155.013,            0.,NA,NA,"",   1.74551E+06,   1.58015E+06,   1.58015E+06
C:/temp/Job-5.odb,Step-1,Increment      1: Step Time =    1.000,"P-5-1",          1274,       165.538,       46.6003,            0.,NA,NA,"",   1.72305E+06,   1.55886E+06,   1.55886E+06
C:/temp/Job-5.odb,Step-1,Increment      1: Step Time =    1.000,"P-5-1",          1275,       38.0932,       152.036,            0.,NA,NA,"",   1.26956E+06,   1.14491E+06,   1.14491E+06
C:/temp/Job-5.odb,Step-1,Increment      1: Step Time =    1.000,"P-5-1",          1276,       36.0455,       52.1176,            0.,NA,NA,"",   1.08938E+06,   976.795E+03,   976.795E+03
C:/temp/Job-5.odb,Step-1,Increment      1: Step Time =    1.000,"P-5-1",          1277,       34.3066,       44.2717,            0.,NA,NA,"",   1.34320E+06,   1.25603E+06,   1.25603E+06
C:/temp/Job-5.odb,Step-1,Increment      1: Step Time =    1.000,"P-5-1",          1278,       47.9701,       34.8443,            0.,NA,NA,"",   1.84783E+06,   1.69371E+06,   1.69371E+06
C:/temp/Job-5.odb,Step-1,Increment      1: Step Time =    1.000,"P-5-1",          1279,       46.0241,       163.976,            0.,NA,NA,"",   1.79641E+06,   1.64191E+06,   1.64191E+06
C:/temp/Job-5.odb,Step-1,Increment      1: Step Time =    1.000,"P-5-1",          1280,       52.2153,       163.920,            0.,NA,NA,"",   1.89707E+06,   1.72010E+06,   1.72010E+06
C:/temp/Job-5.odb,Step-1,Increment      1: Step Time =    1.000,"P-5-1",          1281,       147.015,       34.4649,            0.,NA,NA,"",   1.81273E+06,   1.73080E+06,   1.73080E+06
C:/temp/Job-5.odb,Step-1,Increment      1: Step Time =    1.000,"P-5-1",          1282,       154.749,       34.8575,            0.,NA,NA,"",   1.73092E+06,   1.62075E+06,   1.62075E+06
C:/temp/Job-5.odb,Step-1,Increment      1: Step Time =    1.000,"P-5-1",          1283,       15.9455,       18.9842,            0.,NA,NA,"",   1.91986E+06,   1.97761E+06,   1.97761E+06
C:/temp/Job-5.odb,Step-1,Increment      1: Step Time =    1.000,"P-5-1",          1284,       15.3951,       185.170,            0.,NA,NA,"",   2.08893E+06,   2.13732E+06,   2.13732E+06
C:/temp/Job-5.odb,Step-1,Increment      1: Step Time =    1.000,"P-5-1",          1285,       38.6847,       26.0900,            0.,NA,NA,"",   1.88513E+06,   1.80472E+06,   1.80472E+06
C:/temp/Job-5.odb,Step-1,Increment      1: Step Time =    1.000,"P-5-1",          1286,       31.2954,       37.5365,            0.,NA,NA,"",   1.50795E+06,   1.44773E+06,   1.44773E+06
C:/temp/Job-5.odb,Step-1,Increment      1: Step Time =    1.000,"P-5-1",          1287,       161.069,       30.3156,            0.,NA,NA,"",   1.52339E+06,   1.43968E+06,   1.43968E+06
C:/temp/Job-5.odb,Step-1,Increment      1: Step Time =    1.000,"P-5-1",          1288,       26.4055,       163.570,            0.,NA,NA,"",   1.47481E+06,   1.45665E+06,   1.45665E+06
C:/temp/Job-5.odb,Step-1,Increment      1: Step Time =    1.000,"P-5-1",          1289,       36.7413,       172.049,            0.,NA,NA,"",   1.83023E+06,   1.75601E+06,   1.75601E+06
C:/temp/Job-5.odb,Step-1,Increment      1: Step Time =    1.000,"P-5-1",          1290,       168.309,       34.6816,            0.,NA,NA,"",   1.47319E+06,   1.39459E+06,   1.39459E+06
C:/temp/Job-5.odb,Step-1,Increment      1: Step Time =    1.000,"P-5-1",          1291,       161.328,       169.194,            0.,NA,NA,"",   1.52286E+06,   1.43924E+06,   1.43924E+06
C:/temp/Job-5.odb,Step-1,Increment      1: Step Time =    1.000,"P-5-1",          1292,       26.1322,       27.3705,            0.,NA,NA,"",   1.73915E+06,   1.72925E+06,   1.72925E+06
C:/temp/Job-5.odb,Step-1,Increment      1: Step Time =    1.000,"P-5-1",          1293,       169.645,       28.4679,            0.,NA,NA,"",   1.34084E+06,   1.29105E+06,   1.29105E+06
C:/temp/Job-5.odb,Step-1,Increment      1: Step Time =    1.000,"P-5-1",          1294,       171.273,       170.397,            0.,NA,NA,"",   1.31999E+06,   1.27760E+06,   1.27760E+06
C:/temp/Job-5.odb,Step-1,Increment      1: Step Time =    1.000,"P-5-1",          1295,       153.900,       179.728,            0.,NA,NA,"",   1.33297E+06,   1.28688E+06,   1.28688E+06
C:/temp/Job-5.odb,Step-1,Increment      1: Step Time =    1.000,"P-5-1",          1296,       180.688,       149.725,            0.,NA,NA,"",   1.33700E+06,   1.33271E+06,   1.33271E+06
C:/temp/Job-5.odb,Step-1,Increment      1: Step Time =    1.000,"P-5-1",          1297,       50.0775,       180.829,            0.,NA,NA,"",   1.99459E+06,   1.91118E+06,   1.91118E+06
C:/temp/Job-5.odb,Step-1,Increment      1: Step Time =    1.000,"P-5-1",          1298,       178.966,       46.0793,            0.,NA,NA,"",   1.36270E+06,   1.33372E+06,   1.33372E+06
C:/temp/Job-5.odb,Step-1,Increment      1: Step Time =    1.000,"P-5-1",          1299,       22.3213,       153.528,            0.,NA,NA,"",   1.07815E+06,   1.08498E+06,   1.08498E+06
C:/temp/Job-5.odb,Step-1,Increment      1: Step Time =    1.000,"P-5-1",          1300,       149.806,       19.6893,            0.,NA,NA,"",   1.32762E+06,   1.28571E+06,   1.28571E+06
C:/temp/Job-5.odb,Step-1,Increment      1: Step Time =    1.000,"P-5-1",          1301,       48.7557,       20.5647,            0.,NA,NA,"",   1.99451E+06,   1.90516E+06,   1.90516E+06
C:/temp/Job-5.odb,Step-1,Increment      1: Step Time =    1.000,"P-5-1",          1302,       21.7679,       47.8825,            0.,NA,NA,"",   1.01669E+06,   1.02589E+06,   1.02589E+06
C:/temp/Job-5.odb,Step-1,Increment      1: Step Time =    1.000,"P-5-1",          1303,       154.887,       184.891,            0.,NA,NA,"",   1.17791E+06,   1.14669E+06,   1.14669E+06
C:/temp/Job-5.odb,Step-1,Increment      1: Step Time =    1.000,"P-5-1",          1304,       184.605,       44.9745,            0.,NA,NA,"",   1.18995E+06,   1.22394E+06,   1.22394E+06
C:/temp/Job-5.odb,Step-1,Increment      1: Step Time =    1.000,"P-5-1",          1305,       12.1884,       153.876,            0.,NA,NA,"",   973.419E+03,   1.04171E+06,   1.04171E+06
C:/temp/Job-5.odb,Step-1,Increment      1: Step Time =    1.000,"P-5-1",          1306,       46.7008,       13.3134,            0.,NA,NA,"",   2.01660E+06,   1.97241E+06,   1.97241E+06
C:/temp/Job-5.odb,Step-1,Increment      1: Step Time =    1.000,"P-5-1",          1307,       44.2943,       21.1493,            0.,NA,NA,"",   1.97690E+06,   1.89820E+06,   1.89820E+06
C:/temp/Job-5.odb,Step-1,Increment      1: Step Time =    1.000,"P-5-1",          1308,       176.179,       40.5785,            0.,NA,NA,"",   1.37190E+06,   1.32771E+06,   1.32771E+06
C:/temp/Job-5.odb,Step-1,Increment      1: Step Time =    1.000,"P-5-1",          1309,       158.341,       177.545,            0.,NA,NA,"",   1.35200E+06,   1.30083E+06,   1.30083E+06
C:/temp/Job-5.odb,Step-1,Increment      1: Step Time =    1.000,"P-5-1",          1310,       30.7888,       150.869,            0.,NA,NA,"",   1.11058E+06,   1.05008E+06,   1.05008E+06
C:/temp/Job-5.odb,Step-1,Increment      1: Step Time =    1.000,"P-5-1",          1311,       50.1431,       25.5115,            0.,NA,NA,"",   1.97825E+06,   1.86157E+06,   1.86157E+06
C:/temp/Job-5.odb,Step-1,Increment      1: Step Time =    1.000,"P-5-1",          1312,       148.954,       175.166,            0.,NA,NA,"",   1.50338E+06,   1.44701E+06,   1.44701E+06
C:/temp/Job-5.odb,Step-1,Increment      1: Step Time =    1.000,"P-5-1",          1313,       19.6436,       18.2494,            0.,NA,NA,"",   1.99008E+06,   2.01694E+06,   2.01694E+06
C:/temp/Job-5.odb,Step-1,Increment      1: Step Time =    1.000,"P-5-1",          1314,       30.3202,       47.7476,            0.,NA,NA,"",   1.15202E+06,   1.09739E+06,   1.09739E+06
C:/temp/Job-5.odb,Step-1,Increment      1: Step Time =    1.000,"P-5-1",          1315,       49.7242,       166.634,            0.,NA,NA,"",   1.90665E+06,   1.74939E+06,   1.74939E+06
C:/temp/Job-5.odb,Step-1,Increment      1: Step Time =    1.000,"P-5-1",          1316,       10.4355,       15.1602,            0.,NA,NA,"",   2.01103E+06,   2.11247E+06,   2.11247E+06
C:/temp/Job-5.odb,Step-1,Increment      1: Step Time =    1.000,"P-5-1",          1317,       184.729,       10.2888,            0.,NA,NA,"",   1.01132E+06,   1.01188E+06,   1.01188E+06
C:/temp/Job-5.odb,Step-1,Increment      1: Step Time =    1.000,"P-5-1",          1318,       15.3531,       189.900,            0.,NA,NA,"",   2.25310E+06,   2.28023E+06,   2.28023E+06
C:/temp/Job-5.odb,Step-1,Increment      1: Step Time =    1.000,"P-5-1",          1319,       189.738,       184.748,            0.,NA,NA,"",   1.01565E+06,   1.01761E+06,   1.01761E+06
C:/temp/Job-5.odb,Step-1,Increment      1: Step Time =    1.000,"P-5-1",          1320,       40.0105,       22.6671,            0.,NA,NA,"",   1.95006E+06,   1.87773E+06,   1.87773E+06
C:/temp/Job-5.odb,Step-1,Increment      1: Step Time =    1.000,"P-5-1",          1321,       24.3417,       158.242,            0.,NA,NA,"",   1.26637E+06,   1.26100E+06,   1.26100E+06
C:/temp/Job-5.odb,Step-1,Increment      1: Step Time =    1.000,"P-5-1",          1322,       172.450,       37.7831,            0.,NA,NA,"",   1.42701E+06,   1.36215E+06,   1.36215E+06
C:/temp/Job-5.odb,Step-1,Increment      1: Step Time =    1.000,"P-5-1",          1323,       158.490,       173.781,            0.,NA,NA,"",   1.44833E+06,   1.38348E+06,   1.38348E+06
C:/temp/Job-5.odb,Step-1,Increment      1: Step Time =    1.000,"P-5-1",          1324,       151.682,       183.155,            0.,NA,NA,"",   1.24256E+06,   1.20704E+06,   1.20704E+06
C:/temp/Job-5.odb,Step-1,Increment      1: Step Time =    1.000,"P-5-1",          1325,       176.051,       154.599,            0.,NA,NA,"",   1.43041E+06,   1.37432E+06,   1.37432E+06
C:/temp/Job-5.odb,Step-1,Increment      1: Step Time =    1.000,"P-5-1",          1326,       45.3053,       176.661,            0.,NA,NA,"",   1.95773E+06,   1.86493E+06,   1.86493E+06
C:/temp/Job-5.odb,Step-1,Increment      1: Step Time =    1.000,"P-5-1",          1327,       183.014,       48.1646,            0.,NA,NA,"",   1.25719E+06,   1.27723E+06,   1.27723E+06
C:/temp/Job-5.odb,Step-1,Increment      1: Step Time =    1.000,"P-5-1",          1328,       154.670,       24.2841,            0.,NA,NA,"",   1.44125E+06,   1.38081E+06,   1.38081E+06
C:/temp/Job-5.odb,Step-1,Increment      1: Step Time =    1.000,"P-5-1",          1329,       15.8816,       151.808,            0.,NA,NA,"",   951.923E+03,   997.788E+03,   997.788E+03
C:/temp/Job-5.odb,Step-1,Increment      1: Step Time =    1.000,"P-5-1",          1330,       25.0887,       43.9752,            0.,NA,NA,"",   1.20938E+06,   1.19304E+06,   1.19304E+06
C:/temp/Job-5.odb,Step-1,Increment      1: Step Time =    1.000,"P-5-1",          1331,       48.9566,       15.3258,            0.,NA,NA,"",   2.00481E+06,   1.94705E+06,   1.94705E+06
C:/temp/Job-5.odb,Step-1,Increment      1: Step Time =    1.000,"P-5-1",          1332,       28.8514,       170.627,            0.,NA,NA,"",   1.70583E+06,   1.67480E+06,   1.67480E+06
C:/temp/Job-5.odb,Step-1,Increment      1: Step Time =    1.000,"P-5-1",          1333,       37.1203,       167.638,            0.,NA,NA,"",   1.74233E+06,   1.65453E+06,   1.65453E+06
C:/temp/Job-5.odb,Step-1,Increment      1: Step Time =    1.000,"P-5-1",          1334,       165.959,       39.3809,            0.,NA,NA,"",   1.61606E+06,   1.49770E+06,   1.49770E+06
C:/temp/Job-5.odb,Step-1,Increment      1: Step Time =    1.000,"P-5-1",          1335,       162.726,       164.835,            0.,NA,NA,"",   1.58997E+06,   1.48695E+06,   1.48695E+06
C:/temp/Job-5.odb,Step-1,Increment      1: Step Time =    1.000,"P-5-1",          1336,       167.476,       161.906,            0.,NA,NA,"",   1.54466E+06,   1.44620E+06,   1.44620E+06
C:/temp/Job-5.odb,Step-1,Increment      1: Step Time =    1.000,"P-5-1",          1337,       33.7470,       33.8035,            0.,NA,NA,"",   1.65623E+06,   1.58397E+06,   1.58397E+06
C:/temp/Job-5.odb,Step-1,Increment      1: Step Time =    1.000,"P-5-1",          1338,       36.6813,       30.1186,            0.,NA,NA,"",   1.78611E+06,   1.70674E+06,   1.70674E+06
C:/temp/Job-5.odb,Step-1,Increment      1: Step Time =    1.000,"P-5-1",          1339,       33.1087,       164.005,            0.,NA,NA,"",   1.58521E+06,   1.51541E+06,   1.51541E+06
C:/temp/Job-5.odb,Step-1,Increment      1: Step Time =    1.000,"P-5-1",          1340,       163.470,       34.0374,            0.,NA,NA,"",   1.56336E+06,   1.46618E+06,   1.46618E+06
C:/temp/Job-5.odb,Step-1,Increment      1: Step Time =    1.000,"P-5-1",          1341,       48.8732,       171.845,            0.,NA,NA,"",   1.94709E+06,   1.81550E+06,   1.81550E+06
C:/temp/Job-5.odb,Step-1,Increment      1: Step Time =    1.000,"P-5-1",          1342,       151.035,       29.9614,            0.,NA,NA,"",   1.65471E+06,   1.57634E+06,   1.57634E+06
C:/temp/Job-5.odb,Step-1,Increment      1: Step Time =    1.000,"P-5-1",          1343,       25.8260,       48.1186,            0.,NA,NA,"",   1.07012E+06,   1.04915E+06,   1.04915E+06
C:/temp/Job-5.odb,Step-1,Increment      1: Step Time =    1.000,"P-5-1",          1344,       171.797,       150.763,            0.,NA,NA,"",   1.60244E+06,   1.47617E+06,   1.47617E+06
C:/temp/Job-5.odb,Step-1,Increment      1: Step Time =    1.000,"P-5-1",          1345,       151.556,       170.755,            0.,NA,NA,"",   1.60189E+06,   1.52700E+06,   1.52700E+06
C:/temp/Job-5.odb,Step-1,Increment      1: Step Time =    1.000,"P-5-1",          1346,       32.7911,       153.887,            0.,NA,NA,"",   1.23677E+06,   1.16024E+06,   1.16024E+06
C:/temp/Job-5.odb,Step-1,Increment      1: Step Time =    1.000,"P-5-1",          1347,       170.047,       49.2649,            0.,NA,NA,"",   1.62871E+06,   1.49337E+06,   1.49337E+06
C:/temp/Job-5.odb,Step-1,Increment      1: Step Time =    1.000,"P-5-1",          1348,       48.9944,       29.7865,            0.,NA,NA,"",   1.93052E+06,   1.79526E+06,   1.79526E+06
C:/temp/Job-5.odb,Step-1,Increment      1: Step Time =    1.000,"P-5-1",          1349,       162.061,       37.7803,            0.,NA,NA,"",   1.65823E+06,   1.53661E+06,   1.53661E+06
C:/temp/Job-5.odb,Step-1,Increment      1: Step Time =    1.000,"P-5-1",          1350,       37.1277,       163.122,            0.,NA,NA,"",   1.62024E+06,   1.52141E+06,   1.52141E+06
C:/temp/Job-5.odb,Step-1,Increment      1: Step Time =    1.000,"P-5-1",          1351,       37.6253,       36.7665,            0.,NA,NA,"",   1.62882E+06,   1.52719E+06,   1.52719E+06
C:/temp/Job-5.odb,Step-1,Increment      1: Step Time =    1.000,"P-5-1",          1352,       159.877,       27.5956,            0.,NA,NA,"",   1.46325E+06,   1.39219E+06,   1.39219E+06
C:/temp/Job-5.odb,Step-1,Increment      1: Step Time =    1.000,"P-5-1",          1353,       171.842,       159.919,            0.,NA,NA,"",   1.46985E+06,   1.39339E+06,   1.39339E+06
C:/temp/Job-5.odb,Step-1,Increment      1: Step Time =    1.000,"P-5-1",          1354,       40.7867,       172.328,            0.,NA,NA,"",   1.87526E+06,   1.78208E+06,   1.78208E+06
C:/temp/Job-5.odb,Step-1,Increment      1: Step Time =    1.000,"P-5-1",          1355,       184.556,       184.678,            0.,NA,NA,"",   1.03409E+06,   1.03560E+06,   1.03560E+06
C:/temp/Job-5.odb,Step-1,Increment      1: Step Time =    1.000,"P-5-1",          1356,       184.658,       15.5142,            0.,NA,NA,"",   1.03362E+06,   1.03565E+06,   1.03565E+06
C:/temp/Job-5.odb,Step-1,Increment      1: Step Time =    1.000,"P-5-1",          1357,       15.2082,       14.6057,            0.,NA,NA,"",   2.08847E+06,   2.13603E+06,   2.13603E+06
C:/temp/Job-5.odb,Step-1,Increment      1: Step Time =    1.000,"P-5-1",          1358,       190.187,       20.1434,            0.,NA,NA,"",   1.01885E+06,   1.02555E+06,   1.02555E+06
C:/temp/Job-5.odb,Step-1,Increment      1: Step Time =    1.000,"P-5-1",          1359,       179.893,       190.176,            0.,NA,NA,"",   1.01564E+06,   1.01467E+06,   1.01467E+06
C:/temp/Job-5.odb,Step-1,Increment      1: Step Time =    1.000,"P-5-1",          1360,       15.3194,       9.94026,            0.,NA,NA,"",   2.25900E+06,   2.28589E+06,   2.28589E+06
C:/temp/Job-5.odb,Step-1,Increment      1: Step Time =    1.000,"P-5-1",          1361,       10.5770,       184.703,            0.,NA,NA,"",   2.00944E+06,   2.10866E+06,   2.10866E+06
C:/temp/Job-5.odb,Step-1,Increment      1: Step Time =    1.000,"P-5-1",          1362,       156.657,       164.846,            0.,NA,NA,"",   1.69944E+06,   1.58833E+06,   1.58833E+06
C:/temp/Job-5.odb,Step-1,Increment      1: Step Time =    1.000,"P-5-1",          1363,       163.688,       42.7885,            0.,NA,NA,"",   1.71541E+06,   1.56634E+06,   1.56634E+06
C:/temp/Job-5.odb,Step-1,Increment      1: Step Time =    1.000,"P-5-1",          1364,       36.8793,       157.404,            0.,NA,NA,"",   1.43587E+06,   1.32746E+06,   1.32746E+06
C:/temp/Job-5.odb,Step-1,Increment      1: Step Time =    1.000,"P-5-1",          1365,       41.9878,       33.7763,            0.,NA,NA,"",   1.76879E+06,   1.64822E+06,   1.64822E+06
C:/temp/Job-5.odb,Step-1,Increment      1: Step Time =    1.000,"P-5-1",          1366,       170.487,       155.059,            0.,NA,NA,"",   1.58351E+06,   1.46735E+06,   1.46735E+06
C:/temp/Job-5.odb,Step-1,Increment      1: Step Time =    1.000,"P-5-1",          1367,       155.761,       29.7451,            0.,NA,NA,"",   1.58512E+06,   1.50039E+06,   1.50039E+06
C:/temp/Job-5.odb,Step-1,Increment      1: Step Time =    1.000,"P-5-1",          1368,       28.4547,       44.2113,            0.,NA,NA,"",   1.24981E+06,   1.21031E+06,   1.21031E+06
C:/temp/Job-5.odb,Step-1,Increment      1: Step Time =    1.000,"P-5-1",          1369,       47.7953,       168.879,            0.,NA,NA,"",   1.90596E+06,   1.76432E+06,   1.76432E+06
C:/temp/Job-5.odb,Step-1,Increment      1: Step Time =    1.000,"P-5-1",          1370,       28.8619,       156.014,            0.,NA,NA,"",   1.26022E+06,   1.21601E+06,   1.21601E+06
C:/temp/Job-5.odb,Step-1,Increment      1: Step Time =    1.000,"P-5-1",          1371,       155.544,       177.267,            0.,NA,NA,"",   1.38745E+06,   1.33319E+06,   1.33319E+06
C:/temp/Job-5.odb,Step-1,Increment      1: Step Time =    1.000,"P-5-1",          1372,       46.8255,       23.7541,            0.,NA,NA,"",   1.96979E+06,   1.86962E+06,   1.86962E+06
C:/temp/Job-5.odb,Step-1,Increment      1: Step Time =    1.000,"P-5-1",          1373,       173.843,       45.2692,            0.,NA,NA,"",   1.49112E+06,   1.40981E+06,   1.40981E+06
C:/temp/Job-5.odb,Step-1,Increment      1: Step Time =    1.000,"P-5-1",          1374,       35.4665,       39.8527,            0.,NA,NA,"",   1.50882E+06,   1.41648E+06,   1.41648E+06
C:/temp/Job-5.odb,Step-1,Increment      1: Step Time =    1.000,"P-5-1",          1375,       41.3228,       163.468,            0.,NA,NA,"",   1.69800E+06,   1.56968E+06,   1.56968E+06
C:/temp/Job-5.odb,Step-1,Increment      1: Step Time =    1.000,"P-5-1",          1376,       158.496,       36.0346,            0.,NA,NA,"",   1.69538E+06,   1.57678E+06,   1.57678E+06
C:/temp/Job-5.odb,Step-1,Increment      1: Step Time =    1.000,"P-5-1",          1377,       161.244,       159.618,            0.,NA,NA,"",   1.72801E+06,   1.58640E+06,   1.58640E+06
C:/temp/Job-5.odb,Step-1,Increment      1: Step Time =    1.000,"P-5-1",          1378,       59.3679,       36.2523,            0.,NA,NA,"",   2.01570E+06,   1.82847E+06,   1.82847E+06
C:/temp/Job-5.odb,Step-1,Increment      1: Step Time =    1.000,"P-5-1",          1379,       163.658,       56.6274,            0.,NA,NA,"",   1.84571E+06,   1.58010E+06,   1.58010E+06
C:/temp/Job-5.odb,Step-1,Increment      1: Step Time =    1.000,"P-5-1",          1380,       35.6890,       145.572,            0.,NA,NA,"",   997.491E+03,   892.427E+03,   892.427E+03
C:/temp/Job-5.odb,Step-1,Increment      1: Step Time =    1.000,"P-5-1",          1381,       142.058,       167.033,            0.,NA,NA,"",   1.83951E+06,   1.79467E+06,   1.79467E+06
C:/temp/Job-5.odb,Step-1,Increment      1: Step Time =    1.000,"P-5-1",          1382,       60.0770,       31.9502,            0.,NA,NA,"",   2.06204E+06,   1.89271E+06,   1.89271E+06
C:/temp/Job-5.odb,Step-1,Increment      1: Step Time =    1.000,"P-5-1",          1383,       33.1892,       142.497,            0.,NA,NA,"",   832.518E+03,   748.489E+03,   748.489E+03
C:/temp/Job-5.odb,Step-1,Increment      1: Step Time =    1.000,"P-5-1",          1384,       164.765,       60.3696,            0.,NA,NA,"",   1.81494E+06,   1.52581E+06,   1.52581E+06
C:/temp/Job-5.odb,Step-1,Increment      1: Step Time =    1.000,"P-5-1",          1385,       61.9996,       34.5484,            0.,NA,NA,"",   2.06286E+06,   1.88714E+06,   1.88714E+06
C:/temp/Job-5.odb,Step-1,Increment      1: Step Time =    1.000,"P-5-1",          1386,       139.109,       165.344,            0.,NA,NA,"",   1.91731E+06,   1.89352E+06,   1.89352E+06
C:/temp/Job-5.odb,Step-1,Increment      1: Step Time =    1.000,"P-5-1",          1387,       89.1974,       19.8108,            0.,NA,NA,"",   1.74132E+06,   1.74350E+06,   1.74350E+06
C:/temp/Job-5.odb,Step-1,Increment      1: Step Time =    1.000,"P-5-1",          1388,       20.4447,       113.541,            0.,NA,NA,"",   100.145E+03,  -82.3075E+03,  -82.3075E+03
C:/temp/Job-5.odb,Step-1,Increment      1: Step Time =    1.000,"P-5-1",          1389,       179.208,       90.2347,            0.,NA,NA,"",   836.663E+03,   935.677E+03,   935.677E+03
C:/temp/Job-5.odb,Step-1,Increment      1: Step Time =    1.000,"P-5-1",          1390,       110.898,       179.808,            0.,NA,NA,"",   1.39677E+06,   1.49066E+06,   1.49066E+06
C:/temp/Job-5.odb,Step-1,Increment      1: Step Time =    1.000,"P-5-1",          1391,       80.9026,       163.537,            0.,NA,NA,"",   2.35748E+06,   2.35693E+06,   2.35693E+06
C:/temp/Job-5.odb,Step-1,Increment      1: Step Time =    1.000,"P-5-1",          1392,       120.585,       156.652,            0.,NA,NA,"",   2.90002E+06,   3.05069E+06,   3.05069E+06
C:/temp/Job-5.odb,Step-1,Increment      1: Step Time =    1.000,"P-5-1",          1393,       160.336,       119.881,            0.,NA,NA,"",   1.23218E+06,  -32.1807E+03,  -32.1807E+03
C:/temp/Job-5.odb,Step-1,Increment      1: Step Time =    1.000,"P-5-1",          1394,       156.313,       79.3315,            0.,NA,NA,"",   1.20390E+06,  -864.015E+03,  -864.015E+03
C:/temp/Job-5.odb,Step-1,Increment      1: Step Time =    1.000,"P-5-1",          1395,       26.1227,       8.97946,            0.,NA,NA,"",   2.21070E+06,   2.20657E+06,   2.20657E+06
C:/temp/Job-5.odb,Step-1,Increment      1: Step Time =    1.000,"P-5-1",          1396,       9.84021,       173.758,            0.,NA,NA,"",   1.56229E+06,   1.67715E+06,   1.67715E+06
C:/temp/Job-5.odb,Step-1,Increment      1: Step Time =    1.000,"P-5-1",          1397,       190.976,       29.6012,            0.,NA,NA,"",   1.01908E+06,   1.04494E+06,   1.04494E+06
C:/temp/Job-5.odb,Step-1,Increment      1: Step Time =    1.000,"P-5-1",          1398,       170.376,       190.924,            0.,NA,NA,"",   1.02259E+06,   1.01667E+06,   1.01667E+06
C:/temp/Job-5.odb,Step-1,Increment      1: Step Time =    1.000,"P-5-1",          1399,       29.7193,       100.577,            0.,NA,NA,"",   168.118E+03,  -183.159E+03,  -183.159E+03
C:/temp/Job-5.odb,Step-1,Increment      1: Step Time =    1.000,"P-5-1",          1400,       98.9858,       27.8938,            0.,NA,NA,"",   1.99817E+06,   2.11631E+06,   2.11631E+06
C:/temp/Job-5.odb,Step-1,Increment      1: Step Time =    1.000,"P-5-1",          1401,       40.5871,       119.842,            0.,NA,NA,"",   365.662E+03,  -381.607E+03,  -381.607E+03
C:/temp/Job-5.odb,Step-1,Increment      1: Step Time =    1.000,"P-5-1",          1402,       79.9083,       40.8943,            0.,NA,NA,"",   2.40311E+06,   2.41073E+06,   2.41073E+06
C:/temp/Job-5.odb,Step-1,Increment      1: Step Time =    1.000,"P-5-1",          1403,       133.867,       33.5744,            0.,NA,NA,"",   1.93263E+06,   1.96123E+06,   1.96123E+06
C:/temp/Job-5.odb,Step-1,Increment      1: Step Time =    1.000,"P-5-1",          1404,       34.8294,       64.6196,            0.,NA,NA,"",   573.488E+03,   466.740E+03,   466.740E+03
C:/temp/Job-5.odb,Step-1,Increment      1: Step Time =    1.000,"P-5-1",          1405,       187.002,       57.6717,            0.,NA,NA,"",   1.18777E+06,   1.27934E+06,   1.27934E+06
C:/temp/Job-5.odb,Step-1,Increment      1: Step Time =    1.000,"P-5-1",          1406,       58.0593,       12.6452,            0.,NA,NA,"",   1.92776E+06,   1.87340E+06,   1.87340E+06
C:/temp/Job-5.odb,Step-1,Increment      1: Step Time =    1.000,"P-5-1",          1407,       142.005,       186.910,            0.,NA,NA,"",   1.10877E+06,   1.08953E+06,   1.08953E+06
C:/temp/Job-5.odb,Step-1,Increment      1: Step Time =    1.000,"P-5-1",          1408,       11.2876,       143.477,            0.,NA,NA,"",   652.852E+03,   703.173E+03,   703.173E+03
C:/temp/Job-5.odb,Step-1,Increment      1: Step Time =    1.000,"P-5-1",          1409,       35.7579,       117.799,            0.,NA,NA,"",   247.223E+03,  -264.980E+03,  -264.980E+03
C:/temp/Job-5.odb,Step-1,Increment      1: Step Time =    1.000,"P-5-1",          1410,       81.6405,       36.3533,            0.,NA,NA,"",   2.39546E+06,   2.39827E+06,   2.39827E+06
C:/temp/Job-5.odb,Step-1,Increment      1: Step Time =    1.000,"P-5-1",          1411,       47.8199,       9.88216,            0.,NA,NA,"",   2.02301E+06,   1.99409E+06,   1.99409E+06
C:/temp/Job-5.odb,Step-1,Increment      1: Step Time =    1.000,"P-5-1",          1412,       189.094,       47.1493,            0.,NA,NA,"",   1.07516E+06,   1.15771E+06,   1.15771E+06
C:/temp/Job-5.odb,Step-1,Increment      1: Step Time =    1.000,"P-5-1",          1413,       152.775,       189.188,            0.,NA,NA,"",   1.04979E+06,   1.02898E+06,   1.02898E+06
C:/temp/Job-5.odb,Step-1,Increment      1: Step Time =    1.000,"P-5-1",          1414,       7.53189,       151.667,            0.,NA,NA,"",   863.519E+03,   944.515E+03,   944.515E+03
C:/temp/Job-5.odb,Step-1,Increment      1: Step Time =    1.000,"P-5-1",          1415,       5.07018,       5.04996,            0.,NA,NA,"",   2.55780E+06,   2.66006E+06,   2.66006E+06
C:/temp/Job-5.odb,Step-1,Increment      1: Step Time =    1.000,"P-5-1",          1416,       43.7270,       9.32131,            0.,NA,NA,"",   2.07185E+06,   2.04977E+06,   2.04977E+06
C:/temp/Job-5.odb,Step-1,Increment      1: Step Time =    1.000,"P-5-1",          1417,       9.78218,       26.2571,            0.,NA,NA,"",   1.56532E+06,   1.68067E+06,   1.68067E+06
C:/temp/Job-5.odb,Step-1,Increment      1: Step Time =    1.000,"P-5-1",          1418,       189.945,       15.2385,            0.,NA,NA,"",   1.01378E+06,   1.01607E+06,   1.01607E+06
C:/temp/Job-5.odb,Step-1,Increment      1: Step Time =    1.000,"P-5-1",          1419,       184.797,       189.956,            0.,NA,NA,"",   1.00963E+06,   1.01015E+06,   1.01015E+06
C:/temp/Job-5.odb,Step-1,Increment      1: Step Time =    1.000,"P-5-1",          1420,       8.22598,       155.140,            0.,NA,NA,"",   969.736E+03,   1.05716E+06,   1.05716E+06
C:/temp/Job-5.odb,Step-1,Increment      1: Step Time =    1.000,"P-5-1",          1421,       40.5192,       185.735,            0.,NA,NA,"",   2.04134E+06,   2.00386E+06,   2.00386E+06
C:/temp/Job-5.odb,Step-1,Increment      1: Step Time =    1.000,"P-5-1",          1422,       159.366,       14.3741,            0.,NA,NA,"",   1.14425E+06,   1.11817E+06,   1.11817E+06
C:/temp/Job-5.odb,Step-1,Increment      1: Step Time =    1.000,"P-5-1",          1423,       185.699,       159.356,            0.,NA,NA,"",   1.13171E+06,   1.16804E+06,   1.16804E+06
C:/temp/Job-5.odb,Step-1,Increment      1: Step Time =    1.000,"P-5-1",          1424,       143.129,       179.882,            0.,NA,NA,"",   1.36745E+06,   1.33653E+06,   1.33653E+06
C:/temp/Job-5.odb,Step-1,Increment      1: Step Time =    1.000,"P-5-1",          1425,       132.078,       185.253,            0.,NA,NA,"",   1.13444E+06,   1.14099E+06,   1.14099E+06
C:/temp/Job-5.odb,Step-1,Increment      1: Step Time =    1.000,"P-5-1",          1426,       56.8108,       19.5927,            0.,NA,NA,"",   1.99404E+06,   1.89733E+06,   1.89733E+06
C:/temp/Job-5.odb,Step-1,Increment      1: Step Time =    1.000,"P-5-1",          1427,       67.6113,       14.1800,            0.,NA,NA,"",   1.86148E+06,   1.79141E+06,   1.79141E+06
C:/temp/Job-5.odb,Step-1,Increment      1: Step Time =    1.000,"P-5-1",          1428,       179.817,       56.6191,            0.,NA,NA,"",   1.40836E+06,   1.38620E+06,   1.38620E+06
C:/temp/Job-5.odb,Step-1,Increment      1: Step Time =    1.000,"P-5-1",          1429,       185.397,       67.4639,            0.,NA,NA,"",   1.24835E+06,   1.35534E+06,   1.35534E+06
C:/temp/Job-5.odb,Step-1,Increment      1: Step Time =    1.000,"P-5-1",          1430,       152.643,       145.798,            0.,NA,NA,"",   1.99760E+06,   1.74814E+06,   1.74814E+06
C:/temp/Job-5.odb,Step-1,Increment      1: Step Time =    1.000,"P-5-1",          1431,       145.883,       47.6840,            0.,NA,NA,"",   2.09211E+06,   1.96080E+06,   1.96080E+06
C:/temp/Job-5.odb,Step-1,Increment      1: Step Time =    1.000,"P-5-1",          1432,       112.755,       34.0042,            0.,NA,NA,"",   2.29832E+06,   2.47539E+06,   2.47539E+06
C:/temp/Job-5.odb,Step-1,Increment      1: Step Time =    1.000,"P-5-1",          1433,       47.6098,       54.2532,            0.,NA,NA,"",   1.15959E+06,   956.378E+03,   956.378E+03
C:/temp/Job-5.odb,Step-1,Increment      1: Step Time =    1.000,"P-5-1",          1434,       34.4252,       87.9252,            0.,NA,NA,"",   231.581E+03,  -264.732E+03,  -264.732E+03
C:/temp/Job-5.odb,Step-1,Increment      1: Step Time =    1.000,"P-5-1",          1435,       54.7141,       151.709,            0.,NA,NA,"",   1.56273E+06,   1.35253E+06,   1.35253E+06
C:/temp/Job-5.odb,Step-1,Increment      1: Step Time =    1.000,"P-5-1",          1436,       13.9718,       31.5394,            0.,NA,NA,"",   1.45653E+06,   1.53436E+06,   1.53436E+06
C:/temp/Job-5.odb,Step-1,Increment      1: Step Time =    1.000,"P-5-1",          1437,       14.4845,       35.7940,            0.,NA,NA,"",   1.32317E+06,   1.39322E+06,   1.39322E+06
C:/temp/Job-5.odb,Step-1,Increment      1: Step Time =    1.000,"P-5-1",          1438,       51.4267,       18.0114,            0.,NA,NA,"",   1.99573E+06,   1.91880E+06,   1.91880E+06
C:/temp/Job-5.odb,Step-1,Increment      1: Step Time =    1.000,"P-5-1",          1439,       17.8388,       22.3911,            0.,NA,NA,"",   1.81165E+06,   1.86246E+06,   1.86246E+06
C:/temp/Job-5.odb,Step-1,Increment      1: Step Time =    1.000,"P-5-1",          1440,       180.814,       51.0432,            0.,NA,NA,"",   1.34844E+06,   1.33962E+06,   1.33962E+06
C:/temp/Job-5.odb,Step-1,Increment      1: Step Time =    1.000,"P-5-1",          1441,       148.864,       180.700,            0.,NA,NA,"",   1.33159E+06,   1.29103E+06,   1.29103E+06
C:/temp/Job-5.odb,Step-1,Increment      1: Step Time =    1.000,"P-5-1",          1442,       99.2556,       35.9261,            0.,NA,NA,"",   2.59357E+06,   2.75435E+06,   2.75435E+06
C:/temp/Job-5.odb,Step-1,Increment      1: Step Time =    1.000,"P-5-1",          1443,       36.5486,       100.573,            0.,NA,NA,"",   339.188E+03,  -384.905E+03,  -384.905E+03
C:/temp/Job-5.odb,Step-1,Increment      1: Step Time =    1.000,"P-5-1",          1444,       50.1098,       143.978,            0.,NA,NA,"",   1.10487E+06,   888.206E+03,   888.206E+03
C:/temp/Job-5.odb,Step-1,Increment      1: Step Time =    1.000,"P-5-1",          1445,       144.187,       150.124,            0.,NA,NA,"",   2.13622E+06,   2.01823E+06,   2.01823E+06
C:/temp/Job-5.odb,Step-1,Increment      1: Step Time =    1.000,"P-5-1",          1446,       150.650,       55.9044,            0.,NA,NA,"",   1.97751E+06,   1.72597E+06,   1.72597E+06
C:/temp/Job-5.odb,Step-1,Increment      1: Step Time =    1.000,"P-5-1",          1447,       116.630,       37.8356,            0.,NA,NA,"",   2.53580E+06,   2.71286E+06,   2.71286E+06
C:/temp/Job-5.odb,Step-1,Increment      1: Step Time =    1.000,"P-5-1",          1448,       55.8179,       49.9193,            0.,NA,NA,"",   1.50283E+06,   1.29707E+06,   1.29707E+06
C:/temp/Job-5.odb,Step-1,Increment      1: Step Time =    1.000,"P-5-1",          1449,       38.3534,       81.9338,            0.,NA,NA,"",   304.275E+03,  -329.276E+03,  -329.276E+03
C:/temp/Job-5.odb,Step-1,Increment      1: Step Time =    1.000,"P-5-1",          1450,       46.3403,       18.0035,            0.,NA,NA,"",   2.00212E+06,   1.93188E+06,   1.93188E+06
C:/temp/Job-5.odb,Step-1,Increment      1: Step Time =    1.000,"P-5-1",          1451,       159.611,       75.9179,            0.,NA,NA,"",   1.40971E+06,   343.190E+03,   343.190E+03
C:/temp/Job-5.odb,Step-1,Increment      1: Step Time =    1.000,"P-5-1",          1452,       124.194,       159.961,            0.,NA,NA,"",   2.45139E+06,   2.58364E+06,   2.58364E+06
C:/temp/Job-5.odb,Step-1,Increment      1: Step Time =    1.000,"P-5-1",          1453,       159.925,       182.289,            0.,NA,NA,"",   1.21663E+06,   1.18186E+06,   1.18186E+06
C:/temp/Job-5.odb,Step-1,Increment      1: Step Time =    1.000,"P-5-1",          1454,       20.2475,       39.7307,            0.,NA,NA,"",   1.27909E+06,   1.30250E+06,   1.30250E+06
C:/temp/Job-5.odb,Step-1,Increment      1: Step Time =    1.000,"P-5-1",          1455,       12.8588,       57.2167,            0.,NA,NA,"",   643.248E+03,   689.941E+03,   689.941E+03
C:/temp/Job-5.odb,Step-1,Increment      1: Step Time =    1.000,"P-5-1",          1456,       13.0772,       65.7202,            0.,NA,NA,"",   411.849E+03,   442.468E+03,   442.468E+03
C:/temp/Job-5.odb,Step-1,Increment      1: Step Time =    1.000,"P-5-1",          1457,       15.5044,       142.100,            0.,NA,NA,"",   636.670E+03,   670.282E+03,   670.282E+03
C:/temp/Job-5.odb,Step-1,Increment      1: Step Time =    1.000,"P-5-1",          1458,       17.3388,       145.779,            0.,NA,NA,"",   766.103E+03,   796.591E+03,   796.591E+03
C:/temp/Job-5.odb,Step-1,Increment      1: Step Time =    1.000,"P-5-1",          1459,       182.071,       39.6886,            0.,NA,NA,"",   1.21537E+06,   1.22245E+06,   1.22245E+06
C:/temp/Job-5.odb,Step-1,Increment      1: Step Time =    1.000,"P-5-1",          1460,       142.679,       155.111,            0.,NA,NA,"",   2.11272E+06,   2.02968E+06,   2.02968E+06
C:/temp/Job-5.odb,Step-1,Increment      1: Step Time =    1.000,"P-5-1",          1461,       155.540,       57.9342,            0.,NA,NA,"",   1.94026E+06,   1.62927E+06,   1.62927E+06
C:/temp/Job-5.odb,Step-1,Increment      1: Step Time =    1.000,"P-5-1",          1462,       107.919,       30.4008,            0.,NA,NA,"",   2.07441E+06,   2.23983E+06,   2.23983E+06
C:/temp/Job-5.odb,Step-1,Increment      1: Step Time =    1.000,"P-5-1",          1463,       31.1460,       92.5916,            0.,NA,NA,"",   181.453E+03,  -201.699E+03,  -201.699E+03
C:/temp/Job-5.odb,Step-1,Increment      1: Step Time =    1.000,"P-5-1",          1464,       172.486,       113.468,            0.,NA,NA,"",   899.206E+03,   797.706E+03,   797.706E+03
C:/temp/Job-5.odb,Step-1,Increment      1: Step Time =    1.000,"P-5-1",          1465,       68.1311,       155.285,            0.,NA,NA,"",   1.98766E+06,   1.85605E+06,   1.85605E+06
C:/temp/Job-5.odb,Step-1,Increment      1: Step Time =    1.000,"P-5-1",          1466,       18.4873,       177.624,            0.,NA,NA,"",   1.82421E+06,   1.86613E+06,   1.86613E+06
C:/temp/Job-5.odb,Step-1,Increment      1: Step Time =    1.000,"P-5-1",          1467,       22.0968,       15.4256,            0.,NA,NA,"",   2.06457E+06,   2.07799E+06,   2.07799E+06
C:/temp/Job-5.odb,Step-1,Increment      1: Step Time =    1.000,"P-5-1",          1468,       22.6213,       17.8676,            0.,NA,NA,"",   2.01099E+06,   2.02069E+06,   2.02069E+06
C:/temp/Job-5.odb,Step-1,Increment      1: Step Time =    1.000,"P-5-1",          1469,       145.379,       153.717,            0.,NA,NA,"",   2.10333E+06,   1.98515E+06,   1.98515E+06
C:/temp/Job-5.odb,Step-1,Increment      1: Step Time =    1.000,"P-5-1",          1470,       154.992,       54.8351,            0.,NA,NA,"",   1.96821E+06,   1.69270E+06,   1.69270E+06
C:/temp/Job-5.odb,Step-1,Increment      1: Step Time =    1.000,"P-5-1",          1471,       56.8211,       44.5363,            0.,NA,NA,"",   1.76879E+06,   1.56636E+06,   1.56636E+06
C:/temp/Job-5.odb,Step-1,Increment      1: Step Time =    1.000,"P-5-1",          1472,       44.7502,       143.242,            0.,NA,NA,"",   1.01400E+06,   823.593E+03,   823.593E+03
C:/temp/Job-5.odb,Step-1,Increment      1: Step Time =    1.000,"P-5-1",          1473,       159.901,       129.200,            0.,NA,NA,"",   1.62481E+06,   1.16026E+06,   1.16026E+06
C:/temp/Job-5.odb,Step-1,Increment      1: Step Time =    1.000,"P-5-1",          1474,       173.015,       51.1261,            0.,NA,NA,"",   1.57550E+06,   1.46114E+06,   1.46114E+06
C:/temp/Job-5.odb,Step-1,Increment      1: Step Time =    1.000,"P-5-1",          1475,       17.6306,       25.9745,            0.,NA,NA,"",   1.69272E+06,   1.74355E+06,   1.74355E+06
C:/temp/Job-5.odb,Step-1,Increment      1: Step Time =    1.000,"P-5-1",          1476,       94.6026,       31.5308,            0.,NA,NA,"",   2.25302E+06,   2.36041E+06,   2.36041E+06
C:/temp/Job-5.odb,Step-1,Increment      1: Step Time =    1.000,"P-5-1",          1477,       32.3064,       104.534,            0.,NA,NA,"",   211.334E+03,  -236.903E+03,  -236.903E+03
C:/temp/Job-5.odb,Step-1,Increment      1: Step Time =    1.000,"P-5-1",          1478,       181.339,       26.5693,            0.,NA,NA,"",   1.12370E+06,   1.12547E+06,   1.12547E+06
C:/temp/Job-5.odb,Step-1,Increment      1: Step Time =    1.000,"P-5-1",          1479,       173.624,       181.088,            0.,NA,NA,"",   1.13823E+06,   1.12276E+06,   1.12276E+06
C:/temp/Job-5.odb,Step-1,Increment      1: Step Time =    1.000,"P-5-1",          1480,       127.648,       183.187,            0.,NA,NA,"",   1.21071E+06,   1.23926E+06,   1.23926E+06
C:/temp/Job-5.odb,Step-1,Increment      1: Step Time =    1.000,"P-5-1",          1481,       16.9165,       54.4505,            0.,NA,NA,"",   763.647E+03,   794.258E+03,   794.258E+03
C:/temp/Job-5.odb,Step-1,Increment      1: Step Time =    1.000,"P-5-1",          1482,       16.9374,       61.5938,            0.,NA,NA,"",   537.726E+03,   562.255E+03,   562.255E+03
C:/temp/Job-5.odb,Step-1,Increment      1: Step Time =    1.000,"P-5-1",          1483,       38.1297,       17.7831,            0.,NA,NA,"",   1.99896E+06,   1.95161E+06,   1.95161E+06
C:/temp/Job-5.odb,Step-1,Increment      1: Step Time =    1.000,"P-5-1",          1484,       31.3589,       17.2106,            0.,NA,NA,"",   2.01128E+06,   1.98521E+06,   1.98521E+06
C:/temp/Job-5.odb,Step-1,Increment      1: Step Time =    1.000,"P-5-1",          1485,       25.2927,       17.1835,            0.,NA,NA,"",   2.01051E+06,   2.00962E+06,   2.00962E+06
C:/temp/Job-5.odb,Step-1,Increment      1: Step Time =    1.000,"P-5-1",          1486,       176.531,       167.864,            0.,NA,NA,"",   1.26106E+06,   1.23735E+06,   1.23735E+06
C:/temp/Job-5.odb,Step-1,Increment      1: Step Time =    1.000,"P-5-1",          1487,       57.7138,       39.0533,            0.,NA,NA,"",   1.94773E+06,   1.75512E+06,   1.75512E+06
C:/temp/Job-5.odb,Step-1,Increment      1: Step Time =    1.000,"P-5-1",          1488,       19.0771,       92.1661,            0.,NA,NA,"",   129.307E+03,  -115.236E+03,  -115.236E+03
C:/temp/Job-5.odb,Step-1,Increment      1: Step Time =    1.000,"P-5-1",          1489,       18.4774,       96.4269,            0.,NA,NA,"",   144.639E+03,  -131.877E+03,  -131.877E+03
C:/temp/Job-5.odb,Step-1,Increment      1: Step Time =    1.000,"P-5-1",          1490,       17.8371,       125.306,            0.,NA,NA,"",   194.601E+03,   201.095E+03,   201.095E+03
C:/temp/Job-5.odb,Step-1,Increment      1: Step Time =    1.000,"P-5-1",          1491,       18.6644,       141.171,            0.,NA,NA,"",   631.847E+03,   651.925E+03,   651.925E+03
C:/temp/Job-5.odb,Step-1,Increment      1: Step Time =    1.000,"P-5-1",          1492,       20.8344,       143.405,            0.,NA,NA,"",   718.965E+03,   729.021E+03,   729.021E+03
C:/temp/Job-5.odb,Step-1,Increment      1: Step Time =    1.000,"P-5-1",          1493,       32.0371,       176.033,            0.,NA,NA,"",   1.87441E+06,   1.83312E+06,   1.83312E+06
C:/temp/Job-5.odb,Step-1,Increment      1: Step Time =    1.000,"P-5-1",          1494,       107.923,       25.8105,            0.,NA,NA,"",   1.76642E+06,   1.90308E+06,   1.90308E+06
C:/temp/Job-5.odb,Step-1,Increment      1: Step Time =    1.000,"P-5-1",          1495,       167.819,       23.5615,            0.,NA,NA,"",   1.27424E+06,   1.23458E+06,   1.23458E+06
C:/temp/Job-5.odb,Step-1,Increment      1: Step Time =    1.000,"P-5-1",          1496,       25.1969,       39.7947,            0.,NA,NA,"",   1.34387E+06,   1.33156E+06,   1.33156E+06
C:/temp/Job-5.odb,Step-1,Increment      1: Step Time =    1.000,"P-5-1",          1497,       39.1013,       143.157,            0.,NA,NA,"",   937.844E+03,   797.226E+03,   797.226E+03
C:/temp/Job-5.odb,Step-1,Increment      1: Step Time =    1.000,"P-5-1",          1498,       49.5500,       159.357,            0.,NA,NA,"",   1.74934E+06,   1.56574E+06,   1.56574E+06
C:/temp/Job-5.odb,Step-1,Increment      1: Step Time =    1.000,"P-5-1",          1499,       39.5099,       48.5972,            0.,NA,NA,"",   1.27437E+06,   1.13984E+06,   1.13984E+06
C:/temp/Job-5.odb,Step-1,Increment      1: Step Time =    1.000,"P-5-1",          1500,       150.615,       39.0610,            0.,NA,NA,"",   1.88675E+06,   1.76341E+06,   1.76341E+06
C:/temp/Job-5.odb,Step-1,Increment      1: Step Time =    1.000,"P-5-1",          1501,       160.837,       151.288,            0.,NA,NA,"",   1.87374E+06,   1.66025E+06,   1.66025E+06
C:/temp/Job-5.odb,Step-1,Increment      1: Step Time =    1.000,"P-5-1",          1502,       158.671,       57.6266,            0.,NA,NA,"",   1.92248E+06,   1.61072E+06,   1.61072E+06
C:/temp/Job-5.odb,Step-1,Increment      1: Step Time =    1.000,"P-5-1",          1503,       143.001,       159.714,            0.,NA,NA,"",   2.01913E+06,   1.94812E+06,   1.94812E+06
C:/temp/Job-5.odb,Step-1,Increment      1: Step Time =    1.000,"P-5-1",          1504,       53.0958,       45.9473,            0.,NA,NA,"",   1.63485E+06,   1.43279E+06,   1.43279E+06
C:/temp/Job-5.odb,Step-1,Increment      1: Step Time =    1.000,"P-5-1",          1505,       46.5853,       146.735,            0.,NA,NA,"",   1.19656E+06,   1.00220E+06,   1.00220E+06
C:/temp/Job-5.odb,Step-1,Increment      1: Step Time =    1.000,"P-5-1",          1506,       140.064,       38.7209,            0.,NA,NA,"",   2.02833E+06,   1.99277E+06,   1.99277E+06
C:/temp/Job-5.odb,Step-1,Increment      1: Step Time =    1.000,"P-5-1",          1507,       133.323,       166.903,            0.,NA,NA,"",   1.92184E+06,   1.95688E+06,   1.95688E+06
C:/temp/Job-5.odb,Step-1,Increment      1: Step Time =    1.000,"P-5-1",          1508,       171.969,       127.789,            0.,NA,NA,"",   1.48660E+06,   1.28262E+06,   1.28262E+06
C:/temp/Job-5.odb,Step-1,Increment      1: Step Time =    1.000,"P-5-1",          1509,       171.458,       177.317,            0.,NA,NA,"",   1.21955E+06,   1.19200E+06,   1.19200E+06
C:/temp/Job-5.odb,Step-1,Increment      1: Step Time =    1.000,"P-5-1",          1510,       177.911,       29.3241,            0.,NA,NA,"",   1.20214E+06,   1.18923E+06,   1.18923E+06
C:/temp/Job-5.odb,Step-1,Increment      1: Step Time =    1.000,"P-5-1",          1511,       125.979,       36.3703,            0.,NA,NA,"",   2.15948E+06,   2.26913E+06,   2.26913E+06
C:/temp/Job-5.odb,Step-1,Increment      1: Step Time =    1.000,"P-5-1",          1512,       22.2329,       24.0577,            0.,NA,NA,"",   1.78893E+06,   1.80816E+06,   1.80816E+06
C:/temp/Job-5.odb,Step-1,Increment      1: Step Time =    1.000,"P-5-1",          1513,       175.656,       49.6431,            0.,NA,NA,"",   1.49576E+06,   1.41669E+06,   1.41669E+06
C:/temp/Job-5.odb,Step-1,Increment      1: Step Time =    1.000,"P-5-1",          1514,       154.287,       174.747,            0.,NA,NA,"",   1.46393E+06,   1.40138E+06,   1.40138E+06
C:/temp/Job-5.odb,Step-1,Increment      1: Step Time =    1.000,"P-5-1",          1515,       144.871,       157.893,            0.,NA,NA,"",   2.03226E+06,   1.93532E+06,   1.93532E+06
C:/temp/Job-5.odb,Step-1,Increment      1: Step Time =    1.000,"P-5-1",          1516,       61.1511,       161.524,            0.,NA,NA,"",   2.01634E+06,   1.83066E+06,   1.83066E+06
C:/temp/Job-5.odb,Step-1,Increment      1: Step Time =    1.000,"P-5-1",          1517,       25.5449,       19.7730,            0.,NA,NA,"",   1.96390E+06,   1.96024E+06,   1.96024E+06
C:/temp/Job-5.odb,Step-1,Increment      1: Step Time =    1.000,"P-5-1",          1518,       31.1132,       21.5057,            0.,NA,NA,"",   1.93062E+06,   1.89823E+06,   1.89823E+06
C:/temp/Job-5.odb,Step-1,Increment      1: Step Time =    1.000,"P-5-1",          1519,       23.3391,       119.268,            0.,NA,NA,"",   93.0219E+03,   45.3705E+03,   45.3705E+03
C:/temp/Job-5.odb,Step-1,Increment      1: Step Time =    1.000,"P-5-1",          1520,       37.6550,       21.2458,            0.,NA,NA,"",   1.95548E+06,   1.89484E+06,   1.89484E+06
C:/temp/Job-5.odb,Step-1,Increment      1: Step Time =    1.000,"P-5-1",          1521,       20.9914,       27.7546,            0.,NA,NA,"",   1.67729E+06,   1.70386E+06,   1.70386E+06
C:/temp/Job-5.odb,Step-1,Increment      1: Step Time =    1.000,"P-5-1",          1522,       168.016,       86.3935,            0.,NA,NA,"",   944.138E+03,   114.601E+03,   114.601E+03
C:/temp/Job-5.odb,Step-1,Increment      1: Step Time =    1.000,"P-5-1",          1523,       20.5000,       54.2651,            0.,NA,NA,"",   793.856E+03,   805.013E+03,   805.013E+03
C:/temp/Job-5.odb,Step-1,Increment      1: Step Time =    1.000,"P-5-1",          1524,       20.6164,       58.0128,            0.,NA,NA,"",   681.544E+03,   689.771E+03,   689.771E+03
C:/temp/Job-5.odb,Step-1,Increment      1: Step Time =    1.000,"P-5-1",          1525,       21.5183,       65.1560,            0.,NA,NA,"",   452.777E+03,   451.380E+03,   451.380E+03
C:/temp/Job-5.odb,Step-1,Increment      1: Step Time =    1.000,"P-5-1",          1526,       22.2085,       69.0180,            0.,NA,NA,"",   346.864E+03,   339.410E+03,   339.410E+03
C:/temp/Job-5.odb,Step-1,Increment      1: Step Time =    1.000,"P-5-1",          1527,       57.3070,       33.7586,            0.,NA,NA,"",   2.00852E+06,   1.82979E+06,   1.82979E+06
C:/temp/Job-5.odb,Step-1,Increment      1: Step Time =    1.000,"P-5-1",          1528,       23.0631,       93.1771,            0.,NA,NA,"",   124.683E+03,  -133.250E+03,  -133.250E+03
C:/temp/Job-5.odb,Step-1,Increment      1: Step Time =    1.000,"P-5-1",          1529,       22.2958,       100.887,            0.,NA,NA,"",   137.756E+03,  -146.384E+03,  -146.384E+03
C:/temp/Job-5.odb,Step-1,Increment      1: Step Time =    1.000,"P-5-1",          1530,       22.5308,       104.908,            0.,NA,NA,"",   128.373E+03,  -137.675E+03,  -137.675E+03
C:/temp/Job-5.odb,Step-1,Increment      1: Step Time =    1.000,"P-5-1",          1531,       123.186,       165.219,            0.,NA,NA,"",   2.14736E+06,   2.27542E+06,   2.27542E+06
C:/temp/Job-5.odb,Step-1,Increment      1: Step Time =    1.000,"P-5-1",          1532,       164.292,       77.2796,            0.,NA,NA,"",   1.38285E+06,   942.417E+03,   942.417E+03
C:/temp/Job-5.odb,Step-1,Increment      1: Step Time =    1.000,"P-5-1",          1533,       29.8804,       145.745,            0.,NA,NA,"",   910.432E+03,   855.877E+03,   855.877E+03
C:/temp/Job-5.odb,Step-1,Increment      1: Step Time =    1.000,"P-5-1",          1534,       164.496,       51.2785,            0.,NA,NA,"",   1.80075E+06,   1.59250E+06,   1.59250E+06
C:/temp/Job-5.odb,Step-1,Increment      1: Step Time =    1.000,"P-5-1",          1535,       135.193,       29.7273,            0.,NA,NA,"",   1.78800E+06,   1.80280E+06,   1.80280E+06
C:/temp/Job-5.odb,Step-1,Increment      1: Step Time =    1.000,"P-5-1",          1536,       43.3152,       39.7468,            0.,NA,NA,"",   1.64550E+06,   1.49668E+06,   1.49668E+06
C:/temp/Job-5.odb,Step-1,Increment      1: Step Time =    1.000,"P-5-1",          1537,       41.8022,       155.689,            0.,NA,NA,"",   1.47284E+06,   1.32479E+06,   1.32479E+06
C:/temp/Job-5.odb,Step-1,Increment      1: Step Time =    1.000,"P-5-1",          1538,       17.0365,       171.259,            0.,NA,NA,"",   1.59099E+06,   1.64565E+06,   1.64565E+06
C:/temp/Job-5.odb,Step-1,Increment      1: Step Time =    1.000,"P-5-1",          1539,       44.8910,       172.429,            0.,NA,NA,"",   1.91507E+06,   1.80247E+06,   1.80247E+06
C:/temp/Job-5.odb,Step-1,Increment      1: Step Time =    1.000,"P-5-1",          1540,       167.935,       178.665,            0.,NA,NA,"",   1.22920E+06,   1.19730E+06,   1.19730E+06
C:/temp/Job-5.odb,Step-1,Increment      1: Step Time =    1.000,"P-5-1",          1541,       166.080,       145.570,            0.,NA,NA,"",   1.79529E+06,   1.56775E+06,   1.56775E+06
C:/temp/Job-5.odb,Step-1,Increment      1: Step Time =    1.000,"P-5-1",          1542,       172.860,       163.811,            0.,NA,NA,"",   1.39757E+06,   1.34075E+06,   1.34075E+06
C:/temp/Job-5.odb,Step-1,Increment      1: Step Time =    1.000,"P-5-1",          1543,       147.257,       156.310,            0.,NA,NA,"",   2.04180E+06,   1.91845E+06,   1.91845E+06
C:/temp/Job-5.odb,Step-1,Increment      1: Step Time =    1.000,"P-5-1",          1544,       179.730,       31.8289,            0.,NA,NA,"",   1.19311E+06,   1.18793E+06,   1.18793E+06
C:/temp/Job-5.odb,Step-1,Increment      1: Step Time =    1.000,"P-5-1",          1545,       163.622,       27.0690,            0.,NA,NA,"",   1.39252E+06,   1.33208E+06,   1.33208E+06
C:/temp/Job-5.odb,Step-1,Increment      1: Step Time =    1.000,"P-5-1",          1546,       159.686,       53.0474,            0.,NA,NA,"",   1.90439E+06,   1.64951E+06,   1.64951E+06
C:/temp/Job-5.odb,Step-1,Increment      1: Step Time =    1.000,"P-5-1",          1547,       159.576,       42.2043,            0.,NA,NA,"",   1.78601E+06,   1.62941E+06,   1.62941E+06
C:/temp/Job-5.odb,Step-1,Increment      1: Step Time =    1.000,"P-5-1",          1548,       174.063,       90.2122,            0.,NA,NA,"",   728.264E+03,   726.871E+03,   726.871E+03
C:/temp/Job-5.odb,Step-1,Increment      1: Step Time =    1.000,"P-5-1",          1549,       31.6260,       57.9736,            0.,NA,NA,"",   793.516E+03,   724.771E+03,   724.771E+03
C:/temp/Job-5.odb,Step-1,Increment      1: Step Time =    1.000,"P-5-1",          1550,       80.5959,       21.8881,            0.,NA,NA,"",   1.95981E+06,   1.90667E+06,   1.90667E+06
C:/temp/Job-5.odb,Step-1,Increment      1: Step Time =    1.000,"P-5-1",          1551,       55.7592,       36.0641,            0.,NA,NA,"",   1.95273E+06,   1.76985E+06,   1.76985E+06
C:/temp/Job-5.odb,Step-1,Increment      1: Step Time =    1.000,"P-5-1",          1552,       176.571,       137.665,            0.,NA,NA,"",   1.50806E+06,   1.42588E+06,   1.42588E+06
C:/temp/Job-5.odb,Step-1,Increment      1: Step Time =    1.000,"P-5-1",          1553,       138.550,       22.6106,            0.,NA,NA,"",   1.46108E+06,   1.44645E+06,   1.44645E+06
C:/temp/Job-5.odb,Step-1,Increment      1: Step Time =    1.000,"P-5-1",          1554,       33.3948,       52.3306,            0.,NA,NA,"",   1.03783E+06,   953.354E+03,   953.354E+03
C:/temp/Job-5.odb,Step-1,Increment      1: Step Time =    1.000,"P-5-1",          1555,       33.2214,       49.4746,            0.,NA,NA,"",   1.13434E+06,   1.05233E+06,   1.05233E+06
C:/temp/Job-5.odb,Step-1,Increment      1: Step Time =    1.000,"P-5-1",          1556,       83.8363,       23.0062,            0.,NA,NA,"",   1.96416E+06,   1.93516E+06,   1.93516E+06
C:/temp/Job-5.odb,Step-1,Increment      1: Step Time =    1.000,"P-5-1",          1557,       178.178,       134.549,            0.,NA,NA,"",   1.45372E+06,   1.40601E+06,   1.40601E+06
C:/temp/Job-5.odb,Step-1,Increment      1: Step Time =    1.000,"P-5-1",          1558,       25.4278,       60.9580,            0.,NA,NA,"",   625.797E+03,   603.218E+03,   603.218E+03
C:/temp/Job-5.odb,Step-1,Increment      1: Step Time =    1.000,"P-5-1",          1559,       42.6137,       23.6885,            0.,NA,NA,"",   1.94799E+06,   1.86447E+06,   1.86447E+06
C:/temp/Job-5.odb,Step-1,Increment      1: Step Time =    1.000,"P-5-1",          1560,       40.9922,       167.895,            0.,NA,NA,"",   1.79981E+06,   1.68762E+06,   1.68762E+06
C:/temp/Job-5.odb,Step-1,Increment      1: Step Time =    1.000,"P-5-1",          1561,       146.242,       160.839,            0.,NA,NA,"",   1.95897E+06,   1.86387E+06,   1.86387E+06
C:/temp/Job-5.odb,Step-1,Increment      1: Step Time =    1.000,"P-5-1",          1562,       23.0445,       26.4106,            0.,NA,NA,"",   1.73052E+06,   1.74394E+06,   1.74394E+06
C:/temp/Job-5.odb,Step-1,Increment      1: Step Time =    1.000,"P-5-1",          1563,       167.023,       168.544,            0.,NA,NA,"",   1.43523E+06,   1.36652E+06,   1.36652E+06
C:/temp/Job-5.odb,Step-1,Increment      1: Step Time =    1.000,"P-5-1",          1564,       25.7139,       68.6396,            0.,NA,NA,"",   378.163E+03,   346.769E+03,   346.769E+03
C:/temp/Job-5.odb,Step-1,Increment      1: Step Time =    1.000,"P-5-1",          1565,       21.0672,       168.689,            0.,NA,NA,"",   1.55654E+06,   1.57745E+06,   1.57745E+06
C:/temp/Job-5.odb,Step-1,Increment      1: Step Time =    1.000,"P-5-1",          1566,       167.019,       30.3991,            0.,NA,NA,"",   1.41751E+06,   1.35155E+06,   1.35155E+06
C:/temp/Job-5.odb,Step-1,Increment      1: Step Time =    1.000,"P-5-1",          1567,       29.5679,       24.6420,            0.,NA,NA,"",   1.85059E+06,   1.82098E+06,   1.82098E+06
C:/temp/Job-5.odb,Step-1,Increment      1: Step Time =    1.000,"P-5-1",          1568,       30.2766,       166.457,            0.,NA,NA,"",   1.61354E+06,   1.56654E+06,   1.56654E+06
C:/temp/Job-5.odb,Step-1,Increment      1: Step Time =    1.000,"P-5-1",          1569,       35.2433,       150.713,            0.,NA,NA,"",   1.18460E+06,   1.08523E+06,   1.08523E+06
