ODB Name,Step,Frame,Part Instance Name,    Node Label,X,Y,Z,Section Name,Material Name,Section Point,       S-Mises,S-Max. In-Plane Principal (Abs),S-Max. Principal (Abs)
C:/temp/Job-7.odb,Step-1,Increment      1: Step Time =    1.000,"P-7-1",             1,       85.1279,       186.734,            0.,NA,NA,"",   4.80706E+06,   1.43630E+06,   1.43630E+06
C:/temp/Job-7.odb,Step-1,Increment      1: Step Time =    1.000,"P-7-1",             2,       70.6837,       182.973,            0.,NA,NA,"",    9.8467E+06,  -9.74617E+06,  -9.74617E+06
C:/temp/Job-7.odb,Step-1,Increment      1: Step Time =    1.000,"P-7-1",             3,       57.0828,       176.825,            0.,NA,NA,"",   12.8263E+06,  -12.9649E+06,  -12.9649E+06
C:/temp/Job-7.odb,Step-1,Increment      1: Step Time =    1.000,"P-7-1",             4,       44.7166,       168.467,            0.,NA,NA,"",   11.5319E+06,  -11.6377E+06,  -11.6377E+06
C:/temp/Job-7.odb,Step-1,Increment      1: Step Time =    1.000,"P-7-1",             5,       33.9408,       158.139,            0.,NA,NA,"",   8.50861E+06,  -8.59230E+06,  -8.59230E+06
C:/temp/Job-7.odb,Step-1,Increment      1: Step Time =    1.000,"P-7-1",             6,       25.0654,       146.139,            0.,NA,NA,"",   4.77667E+06,  -4.81607E+06,  -4.81607E+06
C:/temp/Job-7.odb,Step-1,Increment      1: Step Time =    1.000,"P-7-1",             7,       18.3458,       132.811,            0.,NA,NA,"",   2.03619E+06,  -2.06265E+06,  -2.06265E+06
C:/temp/Job-7.odb,Step-1,Increment      1: Step Time =    1.000,"P-7-1",             8,       13.9751,       118.540,            0.,NA,NA,"",   893.473E+03,  -909.264E+03,  -909.264E+03
C:/temp/Job-7.odb,Step-1,Increment      1: Step Time =    1.000,"P-7-1",             9,       12.0793,       103.735,            0.,NA,NA,"",   428.249E+03,  -438.885E+03,  -438.885E+03
C:/temp/Job-7.odb,Step-1,Increment      1: Step Time =    1.000,"P-7-1",            10,       12.7128,       88.8224,            0.,NA,NA,"",   610.312E+03,  -617.591E+03,  -617.591E+03
C:/temp/Job-7.odb,Step-1,Increment      1: Step Time =    1.000,"P-7-1",            11,       15.8573,       74.2316,            0.,NA,NA,"",   1.29013E+06,  -1.30502E+06,  -1.30502E+06
C:/temp/Job-7.odb,Step-1,Increment      1: Step Time =    1.000,"P-7-1",            12,       21.4225,       60.3821,            0.,NA,NA,"",   3.06583E+06,  -3.10247E+06,  -3.10247E+06
C:/temp/Job-7.odb,Step-1,Increment      1: Step Time =    1.000,"P-7-1",            13,       29.2483,       47.6723,            0.,NA,NA,"",   6.53571E+06,  -6.58797E+06,  -6.58797E+06
C:/temp/Job-7.odb,Step-1,Increment      1: Step Time =    1.000,"P-7-1",            14,       39.1094,       36.4679,            0.,NA,NA,"",   9.83848E+06,  -9.91373E+06,  -9.91373E+06
C:/temp/Job-7.odb,Step-1,Increment      1: Step Time =    1.000,"P-7-1",            15,       50.7222,       27.0912,            0.,NA,NA,"",   11.6361E+06,  -11.7923E+06,  -11.7923E+06
C:/temp/Job-7.odb,Step-1,Increment      1: Step Time =    1.000,"P-7-1",            16,       63.7527,       19.8119,            0.,NA,NA,"",   12.3463E+06,  -12.4246E+06,  -12.4246E+06
C:/temp/Job-7.odb,Step-1,Increment      1: Step Time =    1.000,"P-7-1",            17,       77.8259,       14.8395,            0.,NA,NA,"",   6.44145E+06,  -6.13235E+06,  -6.13235E+06
C:/temp/Job-7.odb,Step-1,Increment      1: Step Time =    1.000,"P-7-1",            18,       92.5371,       12.3170,            0.,NA,NA,"",   12.4293E+06,   12.1168E+06,   12.1168E+06
C:/temp/Job-7.odb,Step-1,Increment      1: Step Time =    1.000,"P-7-1",            19,       107.463,       12.3170,            0.,NA,NA,"",   27.9907E+06,   28.0771E+06,   28.0771E+06
C:/temp/Job-7.odb,Step-1,Increment      1: Step Time =    1.000,"P-7-1",            20,       122.174,       14.8395,            0.,NA,NA,"",   27.6048E+06,   27.8593E+06,   27.8593E+06
C:/temp/Job-7.odb,Step-1,Increment      1: Step Time =    1.000,"P-7-1",            21,       136.247,       19.8119,            0.,NA,NA,"",   21.5478E+06,   21.7792E+06,   21.7792E+06
C:/temp/Job-7.odb,Step-1,Increment      1: Step Time =    1.000,"P-7-1",            22,       149.278,       27.0912,            0.,NA,NA,"",   13.5635E+06,   13.7133E+06,   13.7133E+06
C:/temp/Job-7.odb,Step-1,Increment      1: Step Time =    1.000,"P-7-1",            23,       160.891,       36.4679,            0.,NA,NA,"",   8.62109E+06,   8.73094E+06,   8.73094E+06
C:/temp/Job-7.odb,Step-1,Increment      1: Step Time =    1.000,"P-7-1",            24,       170.752,       47.6723,            0.,NA,NA,"",   6.09094E+06,   6.15658E+06,   6.15658E+06
C:/temp/Job-7.odb,Step-1,Increment      1: Step Time =    1.000,"P-7-1",            25,       178.577,       60.3821,            0.,NA,NA,"",   3.10259E+06,   3.03145E+06,   3.03145E+06
C:/temp/Job-7.odb,Step-1,Increment      1: Step Time =    1.000,"P-7-1",            26,       184.143,       74.2316,            0.,NA,NA,"",   5.35032E+06,  -5.22116E+06,  -5.22116E+06
C:/temp/Job-7.odb,Step-1,Increment      1: Step Time =    1.000,"P-7-1",            27,       187.287,       88.8224,            0.,NA,NA,"",   15.3888E+06,  -15.3222E+06,  -15.3222E+06
C:/temp/Job-7.odb,Step-1,Increment      1: Step Time =    1.000,"P-7-1",            28,       187.921,       103.735,            0.,NA,NA,"",   18.8725E+06,  -18.9372E+06,  -18.9372E+06
C:/temp/Job-7.odb,Step-1,Increment      1: Step Time =    1.000,"P-7-1",            29,       186.025,       118.540,            0.,NA,NA,"",   9.68432E+06,  -9.62431E+06,  -9.62431E+06
C:/temp/Job-7.odb,Step-1,Increment      1: Step Time =    1.000,"P-7-1",            30,       181.654,       132.811,            0.,NA,NA,"",   1.97263E+06,  -65.7364E+03,  -65.7364E+03
C:/temp/Job-7.odb,Step-1,Increment      1: Step Time =    1.000,"P-7-1",            31,       174.935,       146.139,            0.,NA,NA,"",   4.89523E+06,   4.92249E+06,   4.92249E+06
C:/temp/Job-7.odb,Step-1,Increment      1: Step Time =    1.000,"P-7-1",            32,       166.059,       158.139,            0.,NA,NA,"",   7.19136E+06,   7.27390E+06,   7.27390E+06
C:/temp/Job-7.odb,Step-1,Increment      1: Step Time =    1.000,"P-7-1",            33,       155.283,       168.467,            0.,NA,NA,"",   10.9107E+06,   11.0423E+06,   11.0423E+06
C:/temp/Job-7.odb,Step-1,Increment      1: Step Time =    1.000,"P-7-1",            34,       142.917,       176.825,            0.,NA,NA,"",   17.3520E+06,   17.5047E+06,   17.5047E+06
C:/temp/Job-7.odb,Step-1,Increment      1: Step Time =    1.000,"P-7-1",            35,       129.316,       182.973,            0.,NA,NA,"",   26.3491E+06,   26.4296E+06,   26.4296E+06
C:/temp/Job-7.odb,Step-1,Increment      1: Step Time =    1.000,"P-7-1",            36,       114.872,       186.734,            0.,NA,NA,"",   29.7167E+06,   29.9561E+06,   29.9561E+06
C:/temp/Job-7.odb,Step-1,Increment      1: Step Time =    1.000,"P-7-1",            37,          100.,          188.,            0.,NA,NA,"",   20.1378E+06,   20.1816E+06,   20.1816E+06
C:/temp/Job-7.odb,Step-1,Increment      1: Step Time =    1.000,"P-7-1",            38,          190.,            0.,            0.,NA,NA,"",   701.392E+03,   588.656E+03,   588.656E+03
C:/temp/Job-7.odb,Step-1,Increment      1: Step Time =    1.000,"P-7-1",            39,          180.,            0.,            0.,NA,NA,"",   1.12645E+06,  -1.04047E+06,  -1.04047E+06
C:/temp/Job-7.odb,Step-1,Increment      1: Step Time =    1.000,"P-7-1",            40,          170.,            0.,            0.,NA,NA,"",   2.82091E+06,  -2.77091E+06,  -2.77091E+06
C:/temp/Job-7.odb,Step-1,Increment      1: Step Time =    1.000,"P-7-1",            41,          160.,            0.,            0.,NA,NA,"",   4.94328E+06,  -4.92266E+06,  -4.92266E+06
C:/temp/Job-7.odb,Step-1,Increment      1: Step Time =    1.000,"P-7-1",            42,          150.,            0.,            0.,NA,NA,"",   7.57003E+06,  -7.53735E+06,  -7.53735E+06
C:/temp/Job-7.odb,Step-1,Increment      1: Step Time =    1.000,"P-7-1",            43,          140.,            0.,            0.,NA,NA,"",   10.6700E+06,  -10.6703E+06,  -10.6703E+06
C:/temp/Job-7.odb,Step-1,Increment      1: Step Time =    1.000,"P-7-1",            44,          130.,            0.,            0.,NA,NA,"",   13.7151E+06,  -13.7415E+06,  -13.7415E+06
C:/temp/Job-7.odb,Step-1,Increment      1: Step Time =    1.000,"P-7-1",            45,          120.,            0.,            0.,NA,NA,"",   15.3590E+06,  -15.1649E+06,  -15.1649E+06
C:/temp/Job-7.odb,Step-1,Increment      1: Step Time =    1.000,"P-7-1",            46,          110.,            0.,            0.,NA,NA,"",   12.3642E+06,  -12.1537E+06,  -12.1537E+06
C:/temp/Job-7.odb,Step-1,Increment      1: Step Time =    1.000,"P-7-1",            47,          100.,            0.,            0.,NA,NA,"",   5.53544E+06,  -4.95132E+06,  -4.95132E+06
C:/temp/Job-7.odb,Step-1,Increment      1: Step Time =    1.000,"P-7-1",            48,           90.,            0.,            0.,NA,NA,"",   7.40599E+06,   7.10746E+06,   7.10746E+06
C:/temp/Job-7.odb,Step-1,Increment      1: Step Time =    1.000,"P-7-1",            49,           80.,            0.,            0.,NA,NA,"",   15.1434E+06,   14.9739E+06,   14.9739E+06
C:/temp/Job-7.odb,Step-1,Increment      1: Step Time =    1.000,"P-7-1",            50,           70.,            0.,            0.,NA,NA,"",   19.5926E+06,   19.4147E+06,   19.4147E+06
C:/temp/Job-7.odb,Step-1,Increment      1: Step Time =    1.000,"P-7-1",            51,           60.,            0.,            0.,NA,NA,"",   20.5735E+06,   20.5457E+06,   20.5457E+06
C:/temp/Job-7.odb,Step-1,Increment      1: Step Time =    1.000,"P-7-1",            52,           50.,            0.,            0.,NA,NA,"",   19.0603E+06,   19.0296E+06,   19.0296E+06
C:/temp/Job-7.odb,Step-1,Increment      1: Step Time =    1.000,"P-7-1",            53,           40.,            0.,            0.,NA,NA,"",   16.6691E+06,   16.6688E+06,   16.6688E+06
C:/temp/Job-7.odb,Step-1,Increment      1: Step Time =    1.000,"P-7-1",            54,           30.,            0.,            0.,NA,NA,"",   14.4247E+06,   14.4182E+06,   14.4182E+06
C:/temp/Job-7.odb,Step-1,Increment      1: Step Time =    1.000,"P-7-1",            55,           20.,            0.,            0.,NA,NA,"",   12.5573E+06,   12.5563E+06,   12.5563E+06
C:/temp/Job-7.odb,Step-1,Increment      1: Step Time =    1.000,"P-7-1",            56,           10.,            0.,            0.,NA,NA,"",   11.1641E+06,   11.1523E+06,   11.1523E+06
C:/temp/Job-7.odb,Step-1,Increment      1: Step Time =    1.000,"P-7-1",            57,          200.,            0.,            0.,NA,NA,"",   978.843E+03,   950.211E+03,   950.211E+03
C:/temp/Job-7.odb,Step-1,Increment      1: Step Time =    1.000,"P-7-1",            58,            0.,            0.,            0.,NA,NA,"",   10.8625E+06,   11.4112E+06,   11.4112E+06
C:/temp/Job-7.odb,Step-1,Increment      1: Step Time =    1.000,"P-7-1",            59,          200.,          190.,            0.,NA,NA,"",   1.36981E+06,   991.243E+03,   991.243E+03
C:/temp/Job-7.odb,Step-1,Increment      1: Step Time =    1.000,"P-7-1",            60,          200.,          180.,            0.,NA,NA,"",   2.31978E+06,  -1.60368E+06,  -1.60368E+06
C:/temp/Job-7.odb,Step-1,Increment      1: Step Time =    1.000,"P-7-1",            61,          200.,          170.,            0.,NA,NA,"",   2.97110E+06,  -2.29018E+06,  -2.29018E+06
C:/temp/Job-7.odb,Step-1,Increment      1: Step Time =    1.000,"P-7-1",            62,          200.,          160.,            0.,NA,NA,"",   2.69980E+06,  -1.96137E+06,  -1.96137E+06
C:/temp/Job-7.odb,Step-1,Increment      1: Step Time =    1.000,"P-7-1",            63,          200.,          150.,            0.,NA,NA,"",   1.69644E+06,   1.38041E+06,   1.38041E+06
C:/temp/Job-7.odb,Step-1,Increment      1: Step Time =    1.000,"P-7-1",            64,          200.,          140.,            0.,NA,NA,"",   3.23311E+06,   3.51399E+06,   3.51399E+06
C:/temp/Job-7.odb,Step-1,Increment      1: Step Time =    1.000,"P-7-1",            65,          200.,          130.,            0.,NA,NA,"",   8.18340E+06,   8.59382E+06,   8.59382E+06
C:/temp/Job-7.odb,Step-1,Increment      1: Step Time =    1.000,"P-7-1",            66,          200.,          120.,            0.,NA,NA,"",   14.7529E+06,   15.1597E+06,   15.1597E+06
C:/temp/Job-7.odb,Step-1,Increment      1: Step Time =    1.000,"P-7-1",            67,          200.,          110.,            0.,NA,NA,"",   20.9430E+06,   21.3098E+06,   21.3098E+06
C:/temp/Job-7.odb,Step-1,Increment      1: Step Time =    1.000,"P-7-1",            68,          200.,          100.,            0.,NA,NA,"",   22.7331E+06,   23.1292E+06,   23.1292E+06
C:/temp/Job-7.odb,Step-1,Increment      1: Step Time =    1.000,"P-7-1",            69,          200.,           90.,            0.,NA,NA,"",   19.7148E+06,   19.9643E+06,   19.9643E+06
C:/temp/Job-7.odb,Step-1,Increment      1: Step Time =    1.000,"P-7-1",            70,          200.,           80.,            0.,NA,NA,"",   13.1174E+06,   13.6819E+06,   13.6819E+06
C:/temp/Job-7.odb,Step-1,Increment      1: Step Time =    1.000,"P-7-1",            71,          200.,           70.,            0.,NA,NA,"",   8.18408E+06,   8.49320E+06,   8.49320E+06
C:/temp/Job-7.odb,Step-1,Increment      1: Step Time =    1.000,"P-7-1",            72,          200.,           60.,            0.,NA,NA,"",   3.38131E+06,   3.66784E+06,   3.66784E+06
C:/temp/Job-7.odb,Step-1,Increment      1: Step Time =    1.000,"P-7-1",            73,          200.,           50.,            0.,NA,NA,"",   1.70337E+06,   1.36021E+06,   1.36021E+06
C:/temp/Job-7.odb,Step-1,Increment      1: Step Time =    1.000,"P-7-1",            74,          200.,           40.,            0.,NA,NA,"",   2.65441E+06,  -1.92098E+06,  -1.92098E+06
C:/temp/Job-7.odb,Step-1,Increment      1: Step Time =    1.000,"P-7-1",            75,          200.,           30.,            0.,NA,NA,"",   2.91713E+06,  -2.22982E+06,  -2.22982E+06
C:/temp/Job-7.odb,Step-1,Increment      1: Step Time =    1.000,"P-7-1",            76,          200.,           20.,            0.,NA,NA,"",   2.31610E+06,  -1.59201E+06,  -1.59201E+06
C:/temp/Job-7.odb,Step-1,Increment      1: Step Time =    1.000,"P-7-1",            77,          200.,           10.,            0.,NA,NA,"",   1.35115E+06,   982.460E+03,   982.460E+03
C:/temp/Job-7.odb,Step-1,Increment      1: Step Time =    1.000,"P-7-1",            78,          200.,          200.,            0.,NA,NA,"",   977.093E+03,   943.520E+03,   943.520E+03
C:/temp/Job-7.odb,Step-1,Increment      1: Step Time =    1.000,"P-7-1",            79,           10.,          200.,            0.,NA,NA,"",   11.1460E+06,   11.1251E+06,   11.1251E+06
C:/temp/Job-7.odb,Step-1,Increment      1: Step Time =    1.000,"P-7-1",            80,           20.,          200.,            0.,NA,NA,"",   12.4024E+06,   12.4072E+06,   12.4072E+06
C:/temp/Job-7.odb,Step-1,Increment      1: Step Time =    1.000,"P-7-1",            81,           30.,          200.,            0.,NA,NA,"",   14.1751E+06,   14.1840E+06,   14.1840E+06
C:/temp/Job-7.odb,Step-1,Increment      1: Step Time =    1.000,"P-7-1",            82,           40.,          200.,            0.,NA,NA,"",   16.5400E+06,   16.5142E+06,   16.5142E+06
C:/temp/Job-7.odb,Step-1,Increment      1: Step Time =    1.000,"P-7-1",            83,           50.,          200.,            0.,NA,NA,"",   18.7913E+06,   18.7388E+06,   18.7388E+06
C:/temp/Job-7.odb,Step-1,Increment      1: Step Time =    1.000,"P-7-1",            84,           60.,          200.,            0.,NA,NA,"",   19.8137E+06,   19.8002E+06,   19.8002E+06
C:/temp/Job-7.odb,Step-1,Increment      1: Step Time =    1.000,"P-7-1",            85,           70.,          200.,            0.,NA,NA,"",   19.5400E+06,   19.3971E+06,   19.3971E+06
C:/temp/Job-7.odb,Step-1,Increment      1: Step Time =    1.000,"P-7-1",            86,           80.,          200.,            0.,NA,NA,"",   15.4741E+06,   15.2259E+06,   15.2259E+06
C:/temp/Job-7.odb,Step-1,Increment      1: Step Time =    1.000,"P-7-1",            87,           90.,          200.,            0.,NA,NA,"",   6.76492E+06,   6.42406E+06,   6.42406E+06
C:/temp/Job-7.odb,Step-1,Increment      1: Step Time =    1.000,"P-7-1",            88,          100.,          200.,            0.,NA,NA,"",   6.11836E+06,  -5.71669E+06,  -5.71669E+06
C:/temp/Job-7.odb,Step-1,Increment      1: Step Time =    1.000,"P-7-1",            89,          110.,          200.,            0.,NA,NA,"",   13.0780E+06,  -12.8922E+06,  -12.8922E+06
C:/temp/Job-7.odb,Step-1,Increment      1: Step Time =    1.000,"P-7-1",            90,          120.,          200.,            0.,NA,NA,"",   15.4121E+06,  -15.2663E+06,  -15.2663E+06
C:/temp/Job-7.odb,Step-1,Increment      1: Step Time =    1.000,"P-7-1",            91,          130.,          200.,            0.,NA,NA,"",   12.5489E+06,  -12.5618E+06,  -12.5618E+06
C:/temp/Job-7.odb,Step-1,Increment      1: Step Time =    1.000,"P-7-1",            92,          140.,          200.,            0.,NA,NA,"",    9.9418E+06,  -9.94100E+06,  -9.94100E+06
C:/temp/Job-7.odb,Step-1,Increment      1: Step Time =    1.000,"P-7-1",            93,          150.,          200.,            0.,NA,NA,"",   7.57391E+06,  -7.52631E+06,  -7.52631E+06
C:/temp/Job-7.odb,Step-1,Increment      1: Step Time =    1.000,"P-7-1",            94,          160.,          200.,            0.,NA,NA,"",   4.93952E+06,  -4.92078E+06,  -4.92078E+06
C:/temp/Job-7.odb,Step-1,Increment      1: Step Time =    1.000,"P-7-1",            95,          170.,          200.,            0.,NA,NA,"",   2.77596E+06,  -2.73720E+06,  -2.73720E+06
C:/temp/Job-7.odb,Step-1,Increment      1: Step Time =    1.000,"P-7-1",            96,          180.,          200.,            0.,NA,NA,"",   1.10555E+06,  -1.01651E+06,  -1.01651E+06
C:/temp/Job-7.odb,Step-1,Increment      1: Step Time =    1.000,"P-7-1",            97,          190.,          200.,            0.,NA,NA,"",   689.596E+03,   576.715E+03,   576.715E+03
C:/temp/Job-7.odb,Step-1,Increment      1: Step Time =    1.000,"P-7-1",            98,            0.,          200.,            0.,NA,NA,"",   10.8226E+06,   11.4096E+06,   11.4096E+06
C:/temp/Job-7.odb,Step-1,Increment      1: Step Time =    1.000,"P-7-1",            99,            0.,           10.,            0.,NA,NA,"",   7.00658E+06,   7.71752E+06,   7.71752E+06
C:/temp/Job-7.odb,Step-1,Increment      1: Step Time =    1.000,"P-7-1",           100,            0.,           20.,            0.,NA,NA,"",   3.44392E+06,   3.81859E+06,   3.81859E+06
C:/temp/Job-7.odb,Step-1,Increment      1: Step Time =    1.000,"P-7-1",           101,            0.,           30.,            0.,NA,NA,"",   914.295E+03,   432.211E+03,   432.211E+03
C:/temp/Job-7.odb,Step-1,Increment      1: Step Time =    1.000,"P-7-1",           102,            0.,           40.,            0.,NA,NA,"",   1.73894E+06,  -1.78243E+06,  -1.78243E+06
C:/temp/Job-7.odb,Step-1,Increment      1: Step Time =    1.000,"P-7-1",           103,            0.,           50.,            0.,NA,NA,"",   2.55476E+06,  -2.60141E+06,  -2.60141E+06
C:/temp/Job-7.odb,Step-1,Increment      1: Step Time =    1.000,"P-7-1",           104,            0.,           60.,            0.,NA,NA,"",   2.42824E+06,  -2.38795E+06,  -2.38795E+06
C:/temp/Job-7.odb,Step-1,Increment      1: Step Time =    1.000,"P-7-1",           105,            0.,           70.,            0.,NA,NA,"",   1.70994E+06,  -1.62278E+06,  -1.62278E+06
C:/temp/Job-7.odb,Step-1,Increment      1: Step Time =    1.000,"P-7-1",           106,            0.,           80.,            0.,NA,NA,"",   927.848E+03,  -860.868E+03,  -860.868E+03
C:/temp/Job-7.odb,Step-1,Increment      1: Step Time =    1.000,"P-7-1",           107,            0.,           90.,            0.,NA,NA,"",   412.815E+03,  -401.976E+03,  -401.976E+03
C:/temp/Job-7.odb,Step-1,Increment      1: Step Time =    1.000,"P-7-1",           108,            0.,          100.,            0.,NA,NA,"",   173.310E+03,  -199.842E+03,  -199.842E+03
C:/temp/Job-7.odb,Step-1,Increment      1: Step Time =    1.000,"P-7-1",           109,            0.,          110.,            0.,NA,NA,"",   425.709E+03,  -418.765E+03,  -418.765E+03
C:/temp/Job-7.odb,Step-1,Increment      1: Step Time =    1.000,"P-7-1",           110,            0.,          120.,            0.,NA,NA,"",   954.659E+03,  -883.098E+03,  -883.098E+03
C:/temp/Job-7.odb,Step-1,Increment      1: Step Time =    1.000,"P-7-1",           111,            0.,          130.,            0.,NA,NA,"",   1.66701E+06,  -1.56787E+06,  -1.56787E+06
C:/temp/Job-7.odb,Step-1,Increment      1: Step Time =    1.000,"P-7-1",           112,            0.,          140.,            0.,NA,NA,"",   2.39246E+06,  -2.34963E+06,  -2.34963E+06
C:/temp/Job-7.odb,Step-1,Increment      1: Step Time =    1.000,"P-7-1",           113,            0.,          150.,            0.,NA,NA,"",   2.53663E+06,  -2.58736E+06,  -2.58736E+06
C:/temp/Job-7.odb,Step-1,Increment      1: Step Time =    1.000,"P-7-1",           114,            0.,          160.,            0.,NA,NA,"",   1.69867E+06,  -1.75530E+06,  -1.75530E+06
C:/temp/Job-7.odb,Step-1,Increment      1: Step Time =    1.000,"P-7-1",           115,            0.,          170.,            0.,NA,NA,"",   840.223E+03,   412.260E+03,   412.260E+03
C:/temp/Job-7.odb,Step-1,Increment      1: Step Time =    1.000,"P-7-1",           116,            0.,          180.,            0.,NA,NA,"",   3.41470E+06,   3.77797E+06,   3.77797E+06
C:/temp/Job-7.odb,Step-1,Increment      1: Step Time =    1.000,"P-7-1",           117,            0.,          190.,            0.,NA,NA,"",   6.99735E+06,   7.70504E+06,   7.70504E+06
C:/temp/Job-7.odb,Step-1,Increment      1: Step Time =    1.000,"P-7-1",           118,       189.857,       9.92639,            0.,NA,NA,"",   1.58298E+06,   1.07348E+06,   1.07348E+06
C:/temp/Job-7.odb,Step-1,Increment      1: Step Time =    1.000,"P-7-1",           119,       10.1661,       62.4231,            0.,NA,NA,"",   2.26683E+06,  -2.27810E+06,  -2.27810E+06
C:/temp/Job-7.odb,Step-1,Increment      1: Step Time =    1.000,"P-7-1",           120,       189.874,       189.713,            0.,NA,NA,"",   1.63635E+06,   1.11955E+06,   1.11955E+06
C:/temp/Job-7.odb,Step-1,Increment      1: Step Time =    1.000,"P-7-1",           121,       179.923,       189.745,            0.,NA,NA,"",   1.94307E+06,   232.785E+03,   232.785E+03
C:/temp/Job-7.odb,Step-1,Increment      1: Step Time =    1.000,"P-7-1",           122,       170.191,       190.139,            0.,NA,NA,"",   2.15841E+06,   63.0094E+03,   63.0094E+03
C:/temp/Job-7.odb,Step-1,Increment      1: Step Time =    1.000,"P-7-1",           123,       154.935,       190.343,            0.,NA,NA,"",   3.11455E+06,   216.583E+03,   216.583E+03
C:/temp/Job-7.odb,Step-1,Increment      1: Step Time =    1.000,"P-7-1",           124,       145.864,       191.826,            0.,NA,NA,"",   3.85451E+06,  -297.464E+03,  -297.464E+03
C:/temp/Job-7.odb,Step-1,Increment      1: Step Time =    1.000,"P-7-1",           125,       139.027,       188.893,            0.,NA,NA,"",   7.36061E+06,   7.28646E+06,   7.28646E+06
C:/temp/Job-7.odb,Step-1,Increment      1: Step Time =    1.000,"P-7-1",           126,       128.225,       191.340,            0.,NA,NA,"",   8.30534E+06,   7.39191E+06,   7.39191E+06
C:/temp/Job-7.odb,Step-1,Increment      1: Step Time =    1.000,"P-7-1",           127,       72.1535,       189.840,            0.,NA,NA,"",   7.80258E+06,   1.57780E+06,   1.57780E+06
C:/temp/Job-7.odb,Step-1,Increment      1: Step Time =    1.000,"P-7-1",           128,       61.1046,       188.264,            0.,NA,NA,"",   5.32177E+06,   1.48382E+06,   1.48382E+06
C:/temp/Job-7.odb,Step-1,Increment      1: Step Time =    1.000,"P-7-1",           129,       50.8385,       190.484,            0.,NA,NA,"",   8.74938E+06,   8.47439E+06,   8.47439E+06
C:/temp/Job-7.odb,Step-1,Increment      1: Step Time =    1.000,"P-7-1",           130,       40.3739,       188.722,            0.,NA,NA,"",   7.53457E+06,   7.36047E+06,   7.36047E+06
C:/temp/Job-7.odb,Step-1,Increment      1: Step Time =    1.000,"P-7-1",           131,       29.4959,       189.959,            0.,NA,NA,"",   8.82784E+06,   8.82152E+06,   8.82152E+06
C:/temp/Job-7.odb,Step-1,Increment      1: Step Time =    1.000,"P-7-1",           132,       19.6206,       189.742,            0.,NA,NA,"",   8.29409E+06,   8.33954E+06,   8.33954E+06
C:/temp/Job-7.odb,Step-1,Increment      1: Step Time =    1.000,"P-7-1",           133,       9.91882,       189.949,            0.,NA,NA,"",   8.03132E+06,   8.26207E+06,   8.26207E+06
C:/temp/Job-7.odb,Step-1,Increment      1: Step Time =    1.000,"P-7-1",           134,       10.2012,       179.277,            0.,NA,NA,"",   2.88041E+06,   3.18402E+06,   3.18402E+06
C:/temp/Job-7.odb,Step-1,Increment      1: Step Time =    1.000,"P-7-1",           135,       20.9738,       179.084,            0.,NA,NA,"",   2.32283E+06,   2.46358E+06,   2.46358E+06
C:/temp/Job-7.odb,Step-1,Increment      1: Step Time =    1.000,"P-7-1",           136,       29.1537,       180.221,            0.,NA,NA,"",   2.15526E+06,   2.04225E+06,   2.04225E+06
C:/temp/Job-7.odb,Step-1,Increment      1: Step Time =    1.000,"P-7-1",           137,       43.7056,       177.987,            0.,NA,NA,"",   4.59553E+06,  -4.80696E+06,  -4.80696E+06
C:/temp/Job-7.odb,Step-1,Increment      1: Step Time =    1.000,"P-7-1",           138,       50.2921,       177.741,            0.,NA,NA,"",   9.24790E+06,  -9.43080E+06,  -9.43080E+06
C:/temp/Job-7.odb,Step-1,Increment      1: Step Time =    1.000,"P-7-1",           139,       149.556,       177.646,            0.,NA,NA,"",   12.6823E+06,   12.8872E+06,   12.8872E+06
C:/temp/Job-7.odb,Step-1,Increment      1: Step Time =    1.000,"P-7-1",           140,       156.645,       178.746,            0.,NA,NA,"",   7.46206E+06,   7.69566E+06,   7.69566E+06
C:/temp/Job-7.odb,Step-1,Increment      1: Step Time =    1.000,"P-7-1",           141,       170.920,       177.222,            0.,NA,NA,"",   3.49150E+06,   3.61325E+06,   3.61325E+06
C:/temp/Job-7.odb,Step-1,Increment      1: Step Time =    1.000,"P-7-1",           142,       178.792,       178.199,            0.,NA,NA,"",   2.54860E+06,   2.40282E+06,   2.40282E+06
C:/temp/Job-7.odb,Step-1,Increment      1: Step Time =    1.000,"P-7-1",           143,       190.115,       179.550,            0.,NA,NA,"",   2.17987E+06,   1.45791E+06,   1.45791E+06
C:/temp/Job-7.odb,Step-1,Increment      1: Step Time =    1.000,"P-7-1",           144,       168.122,       167.830,            0.,NA,NA,"",   5.70429E+06,   5.96511E+06,   5.96511E+06
C:/temp/Job-7.odb,Step-1,Increment      1: Step Time =    1.000,"P-7-1",           145,       176.935,       170.632,            0.,NA,NA,"",   3.02890E+06,   3.19783E+06,   3.19783E+06
C:/temp/Job-7.odb,Step-1,Increment      1: Step Time =    1.000,"P-7-1",           146,       186.513,       169.669,            0.,NA,NA,"",   2.14009E+06,   1.91586E+06,   1.91586E+06
C:/temp/Job-7.odb,Step-1,Increment      1: Step Time =    1.000,"P-7-1",           147,       181.068,       157.879,            0.,NA,NA,"",   3.61148E+06,   3.60168E+06,   3.60168E+06
C:/temp/Job-7.odb,Step-1,Increment      1: Step Time =    1.000,"P-7-1",           148,       189.670,       159.483,            0.,NA,NA,"",   2.49535E+06,   2.07158E+06,   2.07158E+06
C:/temp/Job-7.odb,Step-1,Increment      1: Step Time =    1.000,"P-7-1",           149,       189.441,       145.512,            0.,NA,NA,"",   4.00262E+06,   3.42692E+06,   3.42692E+06
C:/temp/Job-7.odb,Step-1,Increment      1: Step Time =    1.000,"P-7-1",           150,       180.525,       143.770,            0.,NA,NA,"",   3.89827E+06,   3.78563E+06,   3.78563E+06
C:/temp/Job-7.odb,Step-1,Increment      1: Step Time =    1.000,"P-7-1",           151,       191.458,       134.408,            0.,NA,NA,"",   5.21289E+06,   4.41704E+06,   4.41704E+06
C:/temp/Job-7.odb,Step-1,Increment      1: Step Time =    1.000,"P-7-1",           152,       190.136,       125.808,            0.,NA,NA,"",   5.97691E+06,   456.415E+03,   456.415E+03
C:/temp/Job-7.odb,Step-1,Increment      1: Step Time =    1.000,"P-7-1",           153,       189.896,       78.3568,            0.,NA,NA,"",   7.02443E+06,  -2.74291E+06,  -2.74291E+06
C:/temp/Job-7.odb,Step-1,Increment      1: Step Time =    1.000,"P-7-1",           154,       179.611,       53.8214,            0.,NA,NA,"",   4.22935E+06,   4.14553E+06,   4.14553E+06
C:/temp/Job-7.odb,Step-1,Increment      1: Step Time =    1.000,"P-7-1",           155,       191.517,       53.0677,            0.,NA,NA,"",   3.57290E+06,   3.08862E+06,   3.08862E+06
C:/temp/Job-7.odb,Step-1,Increment      1: Step Time =    1.000,"P-7-1",           156,       190.750,       65.2926,            0.,NA,NA,"",   4.74162E+06,   3.90189E+06,   3.90189E+06
C:/temp/Job-7.odb,Step-1,Increment      1: Step Time =    1.000,"P-7-1",           157,       179.098,       41.4186,            0.,NA,NA,"",   3.94122E+06,   3.99389E+06,   3.99389E+06
C:/temp/Job-7.odb,Step-1,Increment      1: Step Time =    1.000,"P-7-1",           158,       190.207,       40.2252,            0.,NA,NA,"",   2.40932E+06,   1.95043E+06,   1.95043E+06
C:/temp/Job-7.odb,Step-1,Increment      1: Step Time =    1.000,"P-7-1",           159,       170.104,       28.4372,            0.,NA,NA,"",   4.45463E+06,   4.71470E+06,   4.71470E+06
C:/temp/Job-7.odb,Step-1,Increment      1: Step Time =    1.000,"P-7-1",           160,       179.312,       32.1025,            0.,NA,NA,"",   2.96589E+06,   3.08815E+06,   3.08815E+06
C:/temp/Job-7.odb,Step-1,Increment      1: Step Time =    1.000,"P-7-1",           161,       189.683,       30.1147,            0.,NA,NA,"",   2.11902E+06,   1.57114E+06,   1.57114E+06
C:/temp/Job-7.odb,Step-1,Increment      1: Step Time =    1.000,"P-7-1",           162,       147.724,       21.4837,            0.,NA,NA,"",   13.4610E+06,   13.6771E+06,   13.6771E+06
C:/temp/Job-7.odb,Step-1,Increment      1: Step Time =    1.000,"P-7-1",           163,       159.629,       22.9898,            0.,NA,NA,"",   6.75841E+06,   7.00372E+06,   7.00372E+06
C:/temp/Job-7.odb,Step-1,Increment      1: Step Time =    1.000,"P-7-1",           164,       170.403,       22.6704,            0.,NA,NA,"",   3.43350E+06,   3.55964E+06,   3.55964E+06
C:/temp/Job-7.odb,Step-1,Increment      1: Step Time =    1.000,"P-7-1",           165,       177.971,       19.6544,            0.,NA,NA,"",   2.44284E+06,   2.23662E+06,   2.23662E+06
C:/temp/Job-7.odb,Step-1,Increment      1: Step Time =    1.000,"P-7-1",           166,       189.001,       20.3911,            0.,NA,NA,"",   2.18942E+06,   1.54175E+06,   1.54175E+06
C:/temp/Job-7.odb,Step-1,Increment      1: Step Time =    1.000,"P-7-1",           167,       9.98377,       9.83298,            0.,NA,NA,"",   8.13718E+06,   8.35565E+06,   8.35565E+06
C:/temp/Job-7.odb,Step-1,Increment      1: Step Time =    1.000,"P-7-1",           168,       19.8691,       9.34293,            0.,NA,NA,"",   8.78110E+06,   8.83439E+06,   8.83439E+06
C:/temp/Job-7.odb,Step-1,Increment      1: Step Time =    1.000,"P-7-1",           169,       29.7770,       9.07247,            0.,NA,NA,"",   9.68531E+06,   9.61717E+06,   9.61717E+06
C:/temp/Job-7.odb,Step-1,Increment      1: Step Time =    1.000,"P-7-1",           170,       39.1846,       9.17943,            0.,NA,NA,"",   9.68344E+06,   9.59803E+06,   9.59803E+06
C:/temp/Job-7.odb,Step-1,Increment      1: Step Time =    1.000,"P-7-1",           171,       55.2127,       9.26044,            0.,NA,NA,"",   8.46801E+06,   8.08672E+06,   8.08672E+06
C:/temp/Job-7.odb,Step-1,Increment      1: Step Time =    1.000,"P-7-1",           172,       66.4559,       9.55456,            0.,NA,NA,"",   7.42292E+06,   3.98508E+06,   3.98508E+06
C:/temp/Job-7.odb,Step-1,Increment      1: Step Time =    1.000,"P-7-1",           173,       76.5331,       10.7102,            0.,NA,NA,"",   6.90238E+06,  -55.2061E+03,  -55.2061E+03
C:/temp/Job-7.odb,Step-1,Increment      1: Step Time =    1.000,"P-7-1",           174,       86.7088,       8.45947,            0.,NA,NA,"",   9.02451E+06,   8.08234E+06,   8.08234E+06
C:/temp/Job-7.odb,Step-1,Increment      1: Step Time =    1.000,"P-7-1",           175,       118.420,       9.16932,            0.,NA,NA,"",   18.0605E+06,   18.2318E+06,   18.2318E+06
C:/temp/Job-7.odb,Step-1,Increment      1: Step Time =    1.000,"P-7-1",           176,       127.842,       9.81620,            0.,NA,NA,"",   12.4471E+06,   12.7778E+06,   12.7778E+06
C:/temp/Job-7.odb,Step-1,Increment      1: Step Time =    1.000,"P-7-1",           177,       139.210,       9.77798,            0.,NA,NA,"",   5.32871E+06,   4.26543E+06,   4.26543E+06
C:/temp/Job-7.odb,Step-1,Increment      1: Step Time =    1.000,"P-7-1",           178,       148.274,       9.11970,            0.,NA,NA,"",   3.66597E+06,   731.564E+03,   731.564E+03
C:/temp/Job-7.odb,Step-1,Increment      1: Step Time =    1.000,"P-7-1",           179,       159.270,       8.61354,            0.,NA,NA,"",   2.61777E+06,  -452.273E+03,  -452.273E+03
C:/temp/Job-7.odb,Step-1,Increment      1: Step Time =    1.000,"P-7-1",           180,       169.010,       13.7003,            0.,NA,NA,"",   2.49339E+06,   2.09208E+06,   2.09208E+06
C:/temp/Job-7.odb,Step-1,Increment      1: Step Time =    1.000,"P-7-1",           181,       179.852,       9.85681,            0.,NA,NA,"",   1.92018E+06,   675.847E+03,   675.847E+03
C:/temp/Job-7.odb,Step-1,Increment      1: Step Time =    1.000,"P-7-1",           182,       52.8729,       20.0234,            0.,NA,NA,"",   8.50342E+06,  -8.63439E+06,  -8.63439E+06
C:/temp/Job-7.odb,Step-1,Increment      1: Step Time =    1.000,"P-7-1",           183,       41.4034,       19.2239,            0.,NA,NA,"",   2.76461E+06,  -626.437E+03,  -626.437E+03
C:/temp/Job-7.odb,Step-1,Increment      1: Step Time =    1.000,"P-7-1",           184,       31.9358,       19.3816,            0.,NA,NA,"",   2.12108E+06,   1.71143E+06,   1.71143E+06
C:/temp/Job-7.odb,Step-1,Increment      1: Step Time =    1.000,"P-7-1",           185,       20.5223,       21.1049,            0.,NA,NA,"",   2.23895E+06,   2.41239E+06,   2.41239E+06
C:/temp/Job-7.odb,Step-1,Increment      1: Step Time =    1.000,"P-7-1",           186,       10.1972,       19.7030,            0.,NA,NA,"",   3.38326E+06,   3.71154E+06,   3.71154E+06
C:/temp/Job-7.odb,Step-1,Increment      1: Step Time =    1.000,"P-7-1",           187,       31.5178,       32.1032,            0.,NA,NA,"",   5.44242E+06,  -5.52451E+06,  -5.52451E+06
C:/temp/Job-7.odb,Step-1,Increment      1: Step Time =    1.000,"P-7-1",           188,       23.4364,       29.3921,            0.,NA,NA,"",   1.93700E+06,  -1.78734E+06,  -1.78734E+06
C:/temp/Job-7.odb,Step-1,Increment      1: Step Time =    1.000,"P-7-1",           189,       14.5080,       29.5566,            0.,NA,NA,"",   1.26464E+06,  -226.223E+03,  -226.223E+03
C:/temp/Job-7.odb,Step-1,Increment      1: Step Time =    1.000,"P-7-1",           190,       20.6586,       43.0036,            0.,NA,NA,"",   4.44550E+06,  -4.36552E+06,  -4.36552E+06
C:/temp/Job-7.odb,Step-1,Increment      1: Step Time =    1.000,"P-7-1",           191,       9.54349,       39.3663,            0.,NA,NA,"",   2.60126E+06,  -2.32999E+06,  -2.32999E+06
C:/temp/Job-7.odb,Step-1,Increment      1: Step Time =    1.000,"P-7-1",           192,       22.4346,       49.8690,            0.,NA,NA,"",   4.80670E+06,  -4.82910E+06,  -4.82910E+06
C:/temp/Job-7.odb,Step-1,Increment      1: Step Time =    1.000,"P-7-1",           193,       10.8042,       49.6710,            0.,NA,NA,"",   3.22769E+06,  -3.13985E+06,  -3.13985E+06
C:/temp/Job-7.odb,Step-1,Increment      1: Step Time =    1.000,"P-7-1",           194,       9.42393,       72.0996,            0.,NA,NA,"",   1.41283E+06,  -1.41854E+06,  -1.41854E+06
C:/temp/Job-7.odb,Step-1,Increment      1: Step Time =    1.000,"P-7-1",           195,       9.90125,       125.707,            0.,NA,NA,"",   1.25359E+06,  -1.26076E+06,  -1.26076E+06
C:/temp/Job-7.odb,Step-1,Increment      1: Step Time =    1.000,"P-7-1",           196,       8.53446,       134.086,            0.,NA,NA,"",   1.90276E+06,  -1.90608E+06,  -1.90608E+06
C:/temp/Job-7.odb,Step-1,Increment      1: Step Time =    1.000,"P-7-1",           197,       18.8831,       144.528,            0.,NA,NA,"",   3.57547E+06,  -3.59879E+06,  -3.59879E+06
C:/temp/Job-7.odb,Step-1,Increment      1: Step Time =    1.000,"P-7-1",           198,       30.1069,       168.983,            0.,NA,NA,"",   4.29950E+06,  -4.38617E+06,  -4.38617E+06
C:/temp/Job-7.odb,Step-1,Increment      1: Step Time =    1.000,"P-7-1",           199,       20.3680,       170.565,            0.,NA,NA,"",   1.50713E+06,  -989.065E+03,  -989.065E+03
C:/temp/Job-7.odb,Step-1,Increment      1: Step Time =    1.000,"P-7-1",           200,       8.66044,       169.932,            0.,NA,NA,"",   1.03805E+06,   339.564E+03,   339.564E+03
C:/temp/Job-7.odb,Step-1,Increment      1: Step Time =    1.000,"P-7-1",           201,       7.90646,       160.682,            0.,NA,NA,"",   2.39698E+06,  -2.15265E+06,  -2.15265E+06
C:/temp/Job-7.odb,Step-1,Increment      1: Step Time =    1.000,"P-7-1",           202,       21.6014,       157.842,            0.,NA,NA,"",   4.59442E+06,  -4.52868E+06,  -4.52868E+06
C:/temp/Job-7.odb,Step-1,Increment      1: Step Time =    1.000,"P-7-1",           203,       95.0214,       187.859,            0.,NA,NA,"",   14.3148E+06,   14.2039E+06,   14.2039E+06
C:/temp/Job-7.odb,Step-1,Increment      1: Step Time =    1.000,"P-7-1",           204,       90.0587,       187.437,            0.,NA,NA,"",   8.60405E+06,   8.23321E+06,   8.23321E+06
C:/temp/Job-7.odb,Step-1,Increment      1: Step Time =    1.000,"P-7-1",           205,       80.2448,       185.754,            0.,NA,NA,"",   4.82882E+06,  -4.12927E+06,  -4.12927E+06
C:/temp/Job-7.odb,Step-1,Increment      1: Step Time =    1.000,"P-7-1",           206,       75.4249,       184.499,            0.,NA,NA,"",   7.24512E+06,  -7.01566E+06,  -7.01566E+06
C:/temp/Job-7.odb,Step-1,Increment      1: Step Time =    1.000,"P-7-1",           207,       66.0364,       181.182,            0.,NA,NA,"",   11.8963E+06,  -11.8919E+06,  -11.8919E+06
C:/temp/Job-7.odb,Step-1,Increment      1: Step Time =    1.000,"P-7-1",           208,       61.4980,       179.130,            0.,NA,NA,"",   12.7573E+06,  -12.8486E+06,  -12.8486E+06
C:/temp/Job-7.odb,Step-1,Increment      1: Step Time =    1.000,"P-7-1",           209,       52.8052,       174.274,            0.,NA,NA,"",   12.5987E+06,  -12.7288E+06,  -12.7288E+06
C:/temp/Job-7.odb,Step-1,Increment      1: Step Time =    1.000,"P-7-1",           210,       48.6787,       171.485,            0.,NA,NA,"",   12.1687E+06,  -12.2876E+06,  -12.2876E+06
C:/temp/Job-7.odb,Step-1,Increment      1: Step Time =    1.000,"P-7-1",           211,       40.9317,       165.230,            0.,NA,NA,"",   10.6791E+06,  -10.7772E+06,  -10.7772E+06
C:/temp/Job-7.odb,Step-1,Increment      1: Step Time =    1.000,"P-7-1",           212,       37.3359,       161.784,            0.,NA,NA,"",   9.65440E+06,  -9.75548E+06,  -9.75548E+06
C:/temp/Job-7.odb,Step-1,Increment      1: Step Time =    1.000,"P-7-1",           213,       30.7574,       154.309,            0.,NA,NA,"",   7.23737E+06,  -7.29830E+06,  -7.29830E+06
C:/temp/Job-7.odb,Step-1,Increment      1: Step Time =    1.000,"P-7-1",           214,       27.7958,       150.305,            0.,NA,NA,"",   5.98258E+06,  -6.01872E+06,  -6.01872E+06
C:/temp/Job-7.odb,Step-1,Increment      1: Step Time =    1.000,"P-7-1",           215,       22.5751,       141.826,            0.,NA,NA,"",   3.66555E+06,  -3.70586E+06,  -3.70586E+06
C:/temp/Job-7.odb,Step-1,Increment      1: Step Time =    1.000,"P-7-1",           216,       20.3329,       137.378,            0.,NA,NA,"",   2.74364E+06,  -2.77661E+06,  -2.77661E+06
C:/temp/Job-7.odb,Step-1,Increment      1: Step Time =    1.000,"P-7-1",           217,       16.6202,       128.139,            0.,NA,NA,"",   1.53413E+06,  -1.55073E+06,  -1.55073E+06
C:/temp/Job-7.odb,Step-1,Increment      1: Step Time =    1.000,"P-7-1",           218,       15.1618,       123.377,            0.,NA,NA,"",   1.17755E+06,  -1.19262E+06,  -1.19262E+06
C:/temp/Job-7.odb,Step-1,Increment      1: Step Time =    1.000,"P-7-1",           219,       13.0640,       113.643,            0.,NA,NA,"",   670.207E+03,  -680.318E+03,  -680.318E+03
C:/temp/Job-7.odb,Step-1,Increment      1: Step Time =    1.000,"P-7-1",           220,       12.4314,       108.703,            0.,NA,NA,"",   517.367E+03,  -525.463E+03,  -525.463E+03
C:/temp/Job-7.odb,Step-1,Increment      1: Step Time =    1.000,"P-7-1",           221,       12.0088,       98.7547,            0.,NA,NA,"",   412.938E+03,  -425.238E+03,  -425.238E+03
C:/temp/Job-7.odb,Step-1,Increment      1: Step Time =    1.000,"P-7-1",           222,       12.2202,       93.7786,            0.,NA,NA,"",   477.564E+03,  -486.821E+03,  -486.821E+03
C:/temp/Job-7.odb,Step-1,Increment      1: Step Time =    1.000,"P-7-1",           223,       13.4849,       83.9021,            0.,NA,NA,"",   788.738E+03,  -796.181E+03,  -796.181E+03
C:/temp/Job-7.odb,Step-1,Increment      1: Step Time =    1.000,"P-7-1",           224,       14.5342,       79.0332,            0.,NA,NA,"",   999.644E+03,  -1.00861E+06,  -1.00861E+06
C:/temp/Job-7.odb,Step-1,Increment      1: Step Time =    1.000,"P-7-1",           225,       17.4499,       69.5125,            0.,NA,NA,"",   1.72791E+06,  -1.74911E+06,  -1.74911E+06
C:/temp/Job-7.odb,Step-1,Increment      1: Step Time =    1.000,"P-7-1",           226,       19.3070,       64.8911,            0.,NA,NA,"",   2.31184E+06,  -2.33840E+06,  -2.33840E+06
C:/temp/Job-7.odb,Step-1,Increment      1: Step Time =    1.000,"P-7-1",           227,       23.7898,           56.,            0.,NA,NA,"",   4.06305E+06,  -4.10418E+06,  -4.10418E+06
C:/temp/Job-7.odb,Step-1,Increment      1: Step Time =    1.000,"P-7-1",           228,       26.4011,       51.7589,            0.,NA,NA,"",   5.26895E+06,  -5.31045E+06,  -5.31045E+06
C:/temp/Job-7.odb,Step-1,Increment      1: Step Time =    1.000,"P-7-1",           229,       32.3220,       43.7533,            0.,NA,NA,"",   7.79172E+06,  -7.85022E+06,  -7.85022E+06
C:/temp/Job-7.odb,Step-1,Increment      1: Step Time =    1.000,"P-7-1",           230,       35.6126,       40.0145,            0.,NA,NA,"",   8.95356E+06,  -9.02184E+06,  -9.02184E+06
C:/temp/Job-7.odb,Step-1,Increment      1: Step Time =    1.000,"P-7-1",           231,       42.8012,       33.1247,            0.,NA,NA,"",   10.4003E+06,  -10.5411E+06,  -10.5411E+06
C:/temp/Job-7.odb,Step-1,Increment      1: Step Time =    1.000,"P-7-1",           232,       46.6763,       29.9958,            0.,NA,NA,"",   10.8851E+06,  -11.1206E+06,  -11.1206E+06
C:/temp/Job-7.odb,Step-1,Increment      1: Step Time =    1.000,"P-7-1",           233,       54.9260,       24.4200,            0.,NA,NA,"",   12.3320E+06,  -12.4470E+06,  -12.4470E+06
C:/temp/Job-7.odb,Step-1,Increment      1: Step Time =    1.000,"P-7-1",           234,       59.2741,       21.9910,            0.,NA,NA,"",   12.6699E+06,  -12.7558E+06,  -12.7558E+06
C:/temp/Job-7.odb,Step-1,Increment      1: Step Time =    1.000,"P-7-1",           235,       68.3474,       17.8896,            0.,NA,NA,"",   11.2778E+06,  -11.3232E+06,  -11.3232E+06
C:/temp/Job-7.odb,Step-1,Increment      1: Step Time =    1.000,"P-7-1",           236,       73.0435,       16.2304,            0.,NA,NA,"",   9.31139E+06,   -9.2104E+06,   -9.2104E+06
C:/temp/Job-7.odb,Step-1,Increment      1: Step Time =    1.000,"P-7-1",           237,       82.6794,       13.7214,            0.,NA,NA,"",   4.67851E+06,  -516.074E+03,  -516.074E+03
C:/temp/Job-7.odb,Step-1,Increment      1: Step Time =    1.000,"P-7-1",           238,       87.5884,       12.8797,            0.,NA,NA,"",   6.96791E+06,   6.26820E+06,   6.26820E+06
C:/temp/Job-7.odb,Step-1,Increment      1: Step Time =    1.000,"P-7-1",           239,       97.5097,       12.0352,            0.,NA,NA,"",   18.4501E+06,   18.2953E+06,   18.2953E+06
C:/temp/Job-7.odb,Step-1,Increment      1: Step Time =    1.000,"P-7-1",           240,       102.490,       12.0352,            0.,NA,NA,"",   23.9685E+06,   24.0316E+06,   24.0316E+06
C:/temp/Job-7.odb,Step-1,Increment      1: Step Time =    1.000,"P-7-1",           241,       112.412,       12.8797,            0.,NA,NA,"",   29.7387E+06,   29.9343E+06,   29.9343E+06
C:/temp/Job-7.odb,Step-1,Increment      1: Step Time =    1.000,"P-7-1",           242,       117.321,       13.7214,            0.,NA,NA,"",   29.5278E+06,   29.6737E+06,   29.6737E+06
C:/temp/Job-7.odb,Step-1,Increment      1: Step Time =    1.000,"P-7-1",           243,       126.957,       16.2304,            0.,NA,NA,"",   23.4476E+06,   23.8815E+06,   23.8815E+06
C:/temp/Job-7.odb,Step-1,Increment      1: Step Time =    1.000,"P-7-1",           244,       131.653,       17.8896,            0.,NA,NA,"",   24.4207E+06,   24.6430E+06,   24.6430E+06
C:/temp/Job-7.odb,Step-1,Increment      1: Step Time =    1.000,"P-7-1",           245,       140.726,       21.9910,            0.,NA,NA,"",   18.6477E+06,   18.8407E+06,   18.8407E+06
C:/temp/Job-7.odb,Step-1,Increment      1: Step Time =    1.000,"P-7-1",           246,       145.074,       24.4200,            0.,NA,NA,"",   15.9522E+06,   16.1070E+06,   16.1070E+06
C:/temp/Job-7.odb,Step-1,Increment      1: Step Time =    1.000,"P-7-1",           247,       153.324,       29.9958,            0.,NA,NA,"",   11.6260E+06,   11.7467E+06,   11.7467E+06
C:/temp/Job-7.odb,Step-1,Increment      1: Step Time =    1.000,"P-7-1",           248,       157.199,       33.1247,            0.,NA,NA,"",   9.97966E+06,   10.1052E+06,   10.1052E+06
C:/temp/Job-7.odb,Step-1,Increment      1: Step Time =    1.000,"P-7-1",           249,       164.387,       40.0145,            0.,NA,NA,"",   7.59992E+06,   7.68714E+06,   7.68714E+06
C:/temp/Job-7.odb,Step-1,Increment      1: Step Time =    1.000,"P-7-1",           250,       167.678,       43.7533,            0.,NA,NA,"",   6.79138E+06,   6.86941E+06,   6.86941E+06
C:/temp/Job-7.odb,Step-1,Increment      1: Step Time =    1.000,"P-7-1",           251,       173.599,       51.7589,            0.,NA,NA,"",   5.35512E+06,   5.38511E+06,   5.38511E+06
C:/temp/Job-7.odb,Step-1,Increment      1: Step Time =    1.000,"P-7-1",           252,       176.210,           56.,            0.,NA,NA,"",   4.36172E+06,   4.36601E+06,   4.36601E+06
C:/temp/Job-7.odb,Step-1,Increment      1: Step Time =    1.000,"P-7-1",           253,       180.693,       64.8911,            0.,NA,NA,"",   2.04664E+06,   613.086E+03,   613.086E+03
C:/temp/Job-7.odb,Step-1,Increment      1: Step Time =    1.000,"P-7-1",           254,       182.550,       69.5125,            0.,NA,NA,"",   2.65421E+06,  -2.27080E+06,  -2.27080E+06
C:/temp/Job-7.odb,Step-1,Increment      1: Step Time =    1.000,"P-7-1",           255,       185.466,       79.0332,            0.,NA,NA,"",   9.10693E+06,  -9.08608E+06,  -9.08608E+06
C:/temp/Job-7.odb,Step-1,Increment      1: Step Time =    1.000,"P-7-1",           256,       186.515,       83.9021,            0.,NA,NA,"",   13.2336E+06,  -12.9574E+06,  -12.9574E+06
C:/temp/Job-7.odb,Step-1,Increment      1: Step Time =    1.000,"P-7-1",           257,       187.780,       93.7786,            0.,NA,NA,"",   14.5877E+06,  -14.8873E+06,  -14.8873E+06
C:/temp/Job-7.odb,Step-1,Increment      1: Step Time =    1.000,"P-7-1",           258,       187.991,       98.7547,            0.,NA,NA,"",   19.7260E+06,  -19.7628E+06,  -19.7628E+06
C:/temp/Job-7.odb,Step-1,Increment      1: Step Time =    1.000,"P-7-1",           259,       187.569,       108.703,            0.,NA,NA,"",   16.4882E+06,  -16.5741E+06,  -16.5741E+06
C:/temp/Job-7.odb,Step-1,Increment      1: Step Time =    1.000,"P-7-1",           260,       186.936,       113.643,            0.,NA,NA,"",   13.3833E+06,  -13.3265E+06,  -13.3265E+06
C:/temp/Job-7.odb,Step-1,Increment      1: Step Time =    1.000,"P-7-1",           261,       184.838,       123.377,            0.,NA,NA,"",   6.25088E+06,  -6.17509E+06,  -6.17509E+06
C:/temp/Job-7.odb,Step-1,Increment      1: Step Time =    1.000,"P-7-1",           262,       183.380,       128.139,            0.,NA,NA,"",   3.36047E+06,  -3.16625E+06,  -3.16625E+06
C:/temp/Job-7.odb,Step-1,Increment      1: Step Time =    1.000,"P-7-1",           263,       179.667,       137.378,            0.,NA,NA,"",   2.48968E+06,   2.31739E+06,   2.31739E+06
C:/temp/Job-7.odb,Step-1,Increment      1: Step Time =    1.000,"P-7-1",           264,       177.425,       141.826,            0.,NA,NA,"",   3.75588E+06,   3.76341E+06,   3.76341E+06
C:/temp/Job-7.odb,Step-1,Increment      1: Step Time =    1.000,"P-7-1",           265,       172.204,       150.305,            0.,NA,NA,"",   5.71785E+06,   5.76700E+06,   5.76700E+06
C:/temp/Job-7.odb,Step-1,Increment      1: Step Time =    1.000,"P-7-1",           266,       169.243,       154.309,            0.,NA,NA,"",   6.42345E+06,   6.49843E+06,   6.49843E+06
C:/temp/Job-7.odb,Step-1,Increment      1: Step Time =    1.000,"P-7-1",           267,       162.664,       161.784,            0.,NA,NA,"",   8.13015E+06,   8.23169E+06,   8.23169E+06
C:/temp/Job-7.odb,Step-1,Increment      1: Step Time =    1.000,"P-7-1",           268,       159.068,       165.230,            0.,NA,NA,"",   9.36747E+06,   9.47955E+06,   9.47955E+06
C:/temp/Job-7.odb,Step-1,Increment      1: Step Time =    1.000,"P-7-1",           269,       151.321,       171.485,            0.,NA,NA,"",   12.7598E+06,   12.9058E+06,   12.9058E+06
C:/temp/Job-7.odb,Step-1,Increment      1: Step Time =    1.000,"P-7-1",           270,       147.195,       174.274,            0.,NA,NA,"",   14.9297E+06,   15.0833E+06,   15.0833E+06
C:/temp/Job-7.odb,Step-1,Increment      1: Step Time =    1.000,"P-7-1",           271,       138.502,       179.130,            0.,NA,NA,"",   19.9701E+06,   20.2202E+06,   20.2202E+06
C:/temp/Job-7.odb,Step-1,Increment      1: Step Time =    1.000,"P-7-1",           272,       133.964,       181.182,            0.,NA,NA,"",   22.9423E+06,   23.2534E+06,   23.2534E+06
C:/temp/Job-7.odb,Step-1,Increment      1: Step Time =    1.000,"P-7-1",           273,       124.575,       184.499,            0.,NA,NA,"",   28.5430E+06,   28.7476E+06,   28.7476E+06
C:/temp/Job-7.odb,Step-1,Increment      1: Step Time =    1.000,"P-7-1",           274,       119.755,       185.754,            0.,NA,NA,"",   29.4043E+06,   29.7811E+06,   29.7811E+06
C:/temp/Job-7.odb,Step-1,Increment      1: Step Time =    1.000,"P-7-1",           275,       109.941,       187.437,            0.,NA,NA,"",   28.5968E+06,   28.6920E+06,   28.6920E+06
C:/temp/Job-7.odb,Step-1,Increment      1: Step Time =    1.000,"P-7-1",           276,       104.979,       187.859,            0.,NA,NA,"",   25.2596E+06,   25.2615E+06,   25.2615E+06
C:/temp/Job-7.odb,Step-1,Increment      1: Step Time =    1.000,"P-7-1",           277,          195.,            0.,            0.,NA,NA,"",   899.528E+03,   852.072E+03,   852.072E+03
C:/temp/Job-7.odb,Step-1,Increment      1: Step Time =    1.000,"P-7-1",           278,          185.,            0.,            0.,NA,NA,"",   688.233E+03,  -130.168E+03,  -130.168E+03
C:/temp/Job-7.odb,Step-1,Increment      1: Step Time =    1.000,"P-7-1",           279,          175.,            0.,            0.,NA,NA,"",   1.89034E+06,  -1.84723E+06,  -1.84723E+06
C:/temp/Job-7.odb,Step-1,Increment      1: Step Time =    1.000,"P-7-1",           280,          165.,            0.,            0.,NA,NA,"",   3.78601E+06,  -3.77233E+06,  -3.77233E+06
C:/temp/Job-7.odb,Step-1,Increment      1: Step Time =    1.000,"P-7-1",           281,          155.,            0.,            0.,NA,NA,"",   6.23797E+06,  -6.21312E+06,  -6.21312E+06
C:/temp/Job-7.odb,Step-1,Increment      1: Step Time =    1.000,"P-7-1",           282,          145.,            0.,            0.,NA,NA,"",   8.95884E+06,  -8.98090E+06,  -8.98090E+06
C:/temp/Job-7.odb,Step-1,Increment      1: Step Time =    1.000,"P-7-1",           283,          135.,            0.,            0.,NA,NA,"",   12.5166E+06,  -12.3794E+06,  -12.3794E+06
C:/temp/Job-7.odb,Step-1,Increment      1: Step Time =    1.000,"P-7-1",           284,          125.,            0.,            0.,NA,NA,"",   14.9017E+06,  -14.7788E+06,  -14.7788E+06
C:/temp/Job-7.odb,Step-1,Increment      1: Step Time =    1.000,"P-7-1",           285,          115.,            0.,            0.,NA,NA,"",   14.3586E+06,  -14.2628E+06,  -14.2628E+06
C:/temp/Job-7.odb,Step-1,Increment      1: Step Time =    1.000,"P-7-1",           286,          105.,            0.,            0.,NA,NA,"",   9.14052E+06,  -8.91906E+06,  -8.91906E+06
C:/temp/Job-7.odb,Step-1,Increment      1: Step Time =    1.000,"P-7-1",           287,           95.,            0.,            0.,NA,NA,"",   4.54753E+06,   903.004E+03,   903.004E+03
C:/temp/Job-7.odb,Step-1,Increment      1: Step Time =    1.000,"P-7-1",           288,           85.,            0.,            0.,NA,NA,"",   11.5928E+06,   11.4691E+06,   11.4691E+06
C:/temp/Job-7.odb,Step-1,Increment      1: Step Time =    1.000,"P-7-1",           289,           75.,            0.,            0.,NA,NA,"",   17.6915E+06,   17.5395E+06,   17.5395E+06
C:/temp/Job-7.odb,Step-1,Increment      1: Step Time =    1.000,"P-7-1",           290,           65.,            0.,            0.,NA,NA,"",   20.5689E+06,   20.4844E+06,   20.4844E+06
C:/temp/Job-7.odb,Step-1,Increment      1: Step Time =    1.000,"P-7-1",           291,           55.,            0.,            0.,NA,NA,"",   20.0674E+06,   19.9860E+06,   19.9860E+06
C:/temp/Job-7.odb,Step-1,Increment      1: Step Time =    1.000,"P-7-1",           292,           45.,            0.,            0.,NA,NA,"",   17.8843E+06,   17.8761E+06,   17.8761E+06
C:/temp/Job-7.odb,Step-1,Increment      1: Step Time =    1.000,"P-7-1",           293,           35.,            0.,            0.,NA,NA,"",   15.4595E+06,   15.4791E+06,   15.4791E+06
C:/temp/Job-7.odb,Step-1,Increment      1: Step Time =    1.000,"P-7-1",           294,           25.,            0.,            0.,NA,NA,"",   13.4594E+06,   13.4584E+06,   13.4584E+06
C:/temp/Job-7.odb,Step-1,Increment      1: Step Time =    1.000,"P-7-1",           295,           15.,            0.,            0.,NA,NA,"",   11.7497E+06,   11.7771E+06,   11.7771E+06
C:/temp/Job-7.odb,Step-1,Increment      1: Step Time =    1.000,"P-7-1",           296,            5.,            0.,            0.,NA,NA,"",   10.9181E+06,   11.1422E+06,   11.1422E+06
C:/temp/Job-7.odb,Step-1,Increment      1: Step Time =    1.000,"P-7-1",           297,          200.,          195.,            0.,NA,NA,"",   1.06866E+06,   951.682E+03,   951.682E+03
C:/temp/Job-7.odb,Step-1,Increment      1: Step Time =    1.000,"P-7-1",           298,          200.,          185.,            0.,NA,NA,"",   1.82715E+06,  -161.897E+03,  -161.897E+03
C:/temp/Job-7.odb,Step-1,Increment      1: Step Time =    1.000,"P-7-1",           299,          200.,          175.,            0.,NA,NA,"",   2.73500E+06,  -2.04467E+06,  -2.04467E+06
C:/temp/Job-7.odb,Step-1,Increment      1: Step Time =    1.000,"P-7-1",           300,          200.,          165.,            0.,NA,NA,"",   2.95645E+06,  -2.27310E+06,  -2.27310E+06
C:/temp/Job-7.odb,Step-1,Increment      1: Step Time =    1.000,"P-7-1",           301,          200.,          155.,            0.,NA,NA,"",   2.21319E+06,  -209.002E+03,  -209.002E+03
C:/temp/Job-7.odb,Step-1,Increment      1: Step Time =    1.000,"P-7-1",           302,          200.,          145.,            0.,NA,NA,"",   1.87777E+06,   1.98957E+06,   1.98957E+06
C:/temp/Job-7.odb,Step-1,Increment      1: Step Time =    1.000,"P-7-1",           303,          200.,          135.,            0.,NA,NA,"",   5.34282E+06,   5.73945E+06,   5.73945E+06
C:/temp/Job-7.odb,Step-1,Increment      1: Step Time =    1.000,"P-7-1",           304,          200.,          125.,            0.,NA,NA,"",   11.4326E+06,   11.8326E+06,   11.8326E+06
C:/temp/Job-7.odb,Step-1,Increment      1: Step Time =    1.000,"P-7-1",           305,          200.,          115.,            0.,NA,NA,"",   18.1256E+06,   18.4708E+06,   18.4708E+06
C:/temp/Job-7.odb,Step-1,Increment      1: Step Time =    1.000,"P-7-1",           306,          200.,          105.,            0.,NA,NA,"",   22.7373E+06,   23.0227E+06,   23.0227E+06
C:/temp/Job-7.odb,Step-1,Increment      1: Step Time =    1.000,"P-7-1",           307,          200.,           95.,            0.,NA,NA,"",   21.7075E+06,   22.1797E+06,   22.1797E+06
C:/temp/Job-7.odb,Step-1,Increment      1: Step Time =    1.000,"P-7-1",           308,          200.,           85.,            0.,NA,NA,"",   16.3457E+06,   16.7235E+06,   16.7235E+06
C:/temp/Job-7.odb,Step-1,Increment      1: Step Time =    1.000,"P-7-1",           309,          200.,           75.,            0.,NA,NA,"",   10.4309E+06,   10.9062E+06,   10.9062E+06
C:/temp/Job-7.odb,Step-1,Increment      1: Step Time =    1.000,"P-7-1",           310,          200.,           65.,            0.,NA,NA,"",   5.83752E+06,   6.13258E+06,   6.13258E+06
C:/temp/Job-7.odb,Step-1,Increment      1: Step Time =    1.000,"P-7-1",           311,          200.,           55.,            0.,NA,NA,"",   1.96757E+06,   2.05998E+06,   2.05998E+06
C:/temp/Job-7.odb,Step-1,Increment      1: Step Time =    1.000,"P-7-1",           312,          200.,           45.,            0.,NA,NA,"",   2.13196E+06,  -311.124E+03,  -311.124E+03
C:/temp/Job-7.odb,Step-1,Increment      1: Step Time =    1.000,"P-7-1",           313,          200.,           35.,            0.,NA,NA,"",   2.88816E+06,  -2.20748E+06,  -2.20748E+06
C:/temp/Job-7.odb,Step-1,Increment      1: Step Time =    1.000,"P-7-1",           314,          200.,           25.,            0.,NA,NA,"",   2.71278E+06,  -2.01009E+06,  -2.01009E+06
C:/temp/Job-7.odb,Step-1,Increment      1: Step Time =    1.000,"P-7-1",           315,          200.,           15.,            0.,NA,NA,"",   1.82376E+06,  -164.364E+03,  -164.364E+03
C:/temp/Job-7.odb,Step-1,Increment      1: Step Time =    1.000,"P-7-1",           316,          200.,            5.,            0.,NA,NA,"",   1.05787E+06,   949.929E+03,   949.929E+03
C:/temp/Job-7.odb,Step-1,Increment      1: Step Time =    1.000,"P-7-1",           317,            5.,          200.,            0.,NA,NA,"",   10.8915E+06,   11.1271E+06,   11.1271E+06
C:/temp/Job-7.odb,Step-1,Increment      1: Step Time =    1.000,"P-7-1",           318,           15.,          200.,            0.,NA,NA,"",   11.6918E+06,   11.7152E+06,   11.7152E+06
C:/temp/Job-7.odb,Step-1,Increment      1: Step Time =    1.000,"P-7-1",           319,           25.,          200.,            0.,NA,NA,"",   13.2204E+06,   13.2317E+06,   13.2317E+06
C:/temp/Job-7.odb,Step-1,Increment      1: Step Time =    1.000,"P-7-1",           320,           35.,          200.,            0.,NA,NA,"",   15.2703E+06,   15.2939E+06,   15.2939E+06
C:/temp/Job-7.odb,Step-1,Increment      1: Step Time =    1.000,"P-7-1",           321,           45.,          200.,            0.,NA,NA,"",   17.7586E+06,   17.7149E+06,   17.7149E+06
C:/temp/Job-7.odb,Step-1,Increment      1: Step Time =    1.000,"P-7-1",           322,           55.,          200.,            0.,NA,NA,"",   19.4774E+06,   19.4340E+06,   19.4340E+06
C:/temp/Job-7.odb,Step-1,Increment      1: Step Time =    1.000,"P-7-1",           323,           65.,          200.,            0.,NA,NA,"",   19.9824E+06,   19.8871E+06,   19.8871E+06
C:/temp/Job-7.odb,Step-1,Increment      1: Step Time =    1.000,"P-7-1",           324,           75.,          200.,            0.,NA,NA,"",   18.0683E+06,   17.9041E+06,   17.9041E+06
C:/temp/Job-7.odb,Step-1,Increment      1: Step Time =    1.000,"P-7-1",           325,           85.,          200.,            0.,NA,NA,"",   11.4794E+06,   11.2636E+06,   11.2636E+06
C:/temp/Job-7.odb,Step-1,Increment      1: Step Time =    1.000,"P-7-1",           326,           95.,          200.,            0.,NA,NA,"",   4.26864E+06,   216.286E+03,   216.286E+03
C:/temp/Job-7.odb,Step-1,Increment      1: Step Time =    1.000,"P-7-1",           327,          105.,          200.,            0.,NA,NA,"",   9.96835E+06,  -9.80094E+06,  -9.80094E+06
C:/temp/Job-7.odb,Step-1,Increment      1: Step Time =    1.000,"P-7-1",           328,          115.,          200.,            0.,NA,NA,"",   14.8752E+06,  -14.7391E+06,  -14.7391E+06
C:/temp/Job-7.odb,Step-1,Increment      1: Step Time =    1.000,"P-7-1",           329,          125.,          200.,            0.,NA,NA,"",   14.5122E+06,  -14.3626E+06,  -14.3626E+06
C:/temp/Job-7.odb,Step-1,Increment      1: Step Time =    1.000,"P-7-1",           330,          135.,          200.,            0.,NA,NA,"",   11.0040E+06,  -11.0490E+06,  -11.0490E+06
C:/temp/Job-7.odb,Step-1,Increment      1: Step Time =    1.000,"P-7-1",           331,          145.,          200.,            0.,NA,NA,"",   8.80906E+06,  -8.78263E+06,  -8.78263E+06
C:/temp/Job-7.odb,Step-1,Increment      1: Step Time =    1.000,"P-7-1",           332,          155.,          200.,            0.,NA,NA,"",   6.23378E+06,  -6.20011E+06,  -6.20011E+06
C:/temp/Job-7.odb,Step-1,Increment      1: Step Time =    1.000,"P-7-1",           333,          165.,          200.,            0.,NA,NA,"",   3.80358E+06,  -3.77352E+06,  -3.77352E+06
C:/temp/Job-7.odb,Step-1,Increment      1: Step Time =    1.000,"P-7-1",           334,          175.,          200.,            0.,NA,NA,"",   1.84611E+06,  -1.80110E+06,  -1.80110E+06
C:/temp/Job-7.odb,Step-1,Increment      1: Step Time =    1.000,"P-7-1",           335,          185.,          200.,            0.,NA,NA,"",   679.759E+03,  -128.798E+03,  -128.798E+03
C:/temp/Job-7.odb,Step-1,Increment      1: Step Time =    1.000,"P-7-1",           336,          195.,          200.,            0.,NA,NA,"",   890.422E+03,   840.986E+03,   840.986E+03
C:/temp/Job-7.odb,Step-1,Increment      1: Step Time =    1.000,"P-7-1",           337,            0.,            5.,            0.,NA,NA,"",   9.37311E+06,   10.0458E+06,   10.0458E+06
C:/temp/Job-7.odb,Step-1,Increment      1: Step Time =    1.000,"P-7-1",           338,            0.,           15.,            0.,NA,NA,"",   5.17788E+06,   5.72837E+06,   5.72837E+06
C:/temp/Job-7.odb,Step-1,Increment      1: Step Time =    1.000,"P-7-1",           339,            0.,           25.,            0.,NA,NA,"",   1.93028E+06,   2.12171E+06,   2.12171E+06
C:/temp/Job-7.odb,Step-1,Increment      1: Step Time =    1.000,"P-7-1",           340,            0.,           35.,            0.,NA,NA,"",   1.01533E+06,  -929.872E+03,  -929.872E+03
C:/temp/Job-7.odb,Step-1,Increment      1: Step Time =    1.000,"P-7-1",           341,            0.,           45.,            0.,NA,NA,"",   2.27719E+06,  -2.34457E+06,  -2.34457E+06
C:/temp/Job-7.odb,Step-1,Increment      1: Step Time =    1.000,"P-7-1",           342,            0.,           55.,            0.,NA,NA,"",   2.61112E+06,  -2.61812E+06,  -2.61812E+06
C:/temp/Job-7.odb,Step-1,Increment      1: Step Time =    1.000,"P-7-1",           343,            0.,           65.,            0.,NA,NA,"",   2.08839E+06,  -2.01220E+06,  -2.01220E+06
C:/temp/Job-7.odb,Step-1,Increment      1: Step Time =    1.000,"P-7-1",           344,            0.,           75.,            0.,NA,NA,"",   1.30652E+06,  -1.22631E+06,  -1.22631E+06
C:/temp/Job-7.odb,Step-1,Increment      1: Step Time =    1.000,"P-7-1",           345,            0.,           85.,            0.,NA,NA,"",   628.381E+03,  -586.720E+03,  -586.720E+03
C:/temp/Job-7.odb,Step-1,Increment      1: Step Time =    1.000,"P-7-1",           346,            0.,           95.,            0.,NA,NA,"",   248.019E+03,  -262.790E+03,  -262.790E+03
C:/temp/Job-7.odb,Step-1,Increment      1: Step Time =    1.000,"P-7-1",           347,            0.,          105.,            0.,NA,NA,"",   244.627E+03,  -263.930E+03,  -263.930E+03
C:/temp/Job-7.odb,Step-1,Increment      1: Step Time =    1.000,"P-7-1",           348,            0.,          115.,            0.,NA,NA,"",   667.877E+03,  -625.583E+03,  -625.583E+03
C:/temp/Job-7.odb,Step-1,Increment      1: Step Time =    1.000,"P-7-1",           349,            0.,          125.,            0.,NA,NA,"",   1.27367E+06,  -1.17970E+06,  -1.17970E+06
C:/temp/Job-7.odb,Step-1,Increment      1: Step Time =    1.000,"P-7-1",           350,            0.,          135.,            0.,NA,NA,"",   2.06345E+06,  -1.98121E+06,  -1.98121E+06
C:/temp/Job-7.odb,Step-1,Increment      1: Step Time =    1.000,"P-7-1",           351,            0.,          145.,            0.,NA,NA,"",   2.57527E+06,  -2.58188E+06,  -2.58188E+06
C:/temp/Job-7.odb,Step-1,Increment      1: Step Time =    1.000,"P-7-1",           352,            0.,          155.,            0.,NA,NA,"",   2.27702E+06,  -2.35066E+06,  -2.35066E+06
C:/temp/Job-7.odb,Step-1,Increment      1: Step Time =    1.000,"P-7-1",           353,            0.,          165.,            0.,NA,NA,"",   928.929E+03,  -882.034E+03,  -882.034E+03
C:/temp/Job-7.odb,Step-1,Increment      1: Step Time =    1.000,"P-7-1",           354,            0.,          175.,            0.,NA,NA,"",   1.88302E+06,   2.06939E+06,   2.06939E+06
C:/temp/Job-7.odb,Step-1,Increment      1: Step Time =    1.000,"P-7-1",           355,            0.,          185.,            0.,NA,NA,"",   5.15321E+06,   5.69481E+06,   5.69481E+06
C:/temp/Job-7.odb,Step-1,Increment      1: Step Time =    1.000,"P-7-1",           356,            0.,          195.,            0.,NA,NA,"",   9.35735E+06,   10.0402E+06,   10.0402E+06
C:/temp/Job-7.odb,Step-1,Increment      1: Step Time =    1.000,"P-7-1",           357,       92.4941,       7.20220,            0.,NA,NA,"",   11.3550E+06,   10.4664E+06,   10.4664E+06
C:/temp/Job-7.odb,Step-1,Increment      1: Step Time =    1.000,"P-7-1",           358,       54.4653,       180.571,            0.,NA,NA,"",   8.76631E+06,  -8.92533E+06,  -8.92533E+06
C:/temp/Job-7.odb,Step-1,Increment      1: Step Time =    1.000,"P-7-1",           359,       93.2743,       192.095,            0.,NA,NA,"",   12.7809E+06,   12.0525E+06,   12.0525E+06
C:/temp/Job-7.odb,Step-1,Increment      1: Step Time =    1.000,"P-7-1",           360,       59.0241,       182.760,            0.,NA,NA,"",   8.40805E+06,  -8.44656E+06,  -8.44656E+06
C:/temp/Job-7.odb,Step-1,Increment      1: Step Time =    1.000,"P-7-1",           361,       157.883,       171.733,            0.,NA,NA,"",   9.51022E+06,   9.70279E+06,   9.70279E+06
C:/temp/Job-7.odb,Step-1,Increment      1: Step Time =    1.000,"P-7-1",           362,       88.2211,       191.596,            0.,NA,NA,"",   9.90951E+06,   9.11991E+06,   9.11991E+06
C:/temp/Job-7.odb,Step-1,Increment      1: Step Time =    1.000,"P-7-1",           363,       177.261,       49.2680,            0.,NA,NA,"",   4.84080E+06,   4.84557E+06,   4.84557E+06
C:/temp/Job-7.odb,Step-1,Increment      1: Step Time =    1.000,"P-7-1",           364,       46.2502,       174.731,            0.,NA,NA,"",   9.51797E+06,  -9.69783E+06,  -9.69783E+06
C:/temp/Job-7.odb,Step-1,Increment      1: Step Time =    1.000,"P-7-1",           365,       83.1340,       191.087,            0.,NA,NA,"",   7.57797E+06,   5.27387E+06,   5.27387E+06
C:/temp/Job-7.odb,Step-1,Increment      1: Step Time =    1.000,"P-7-1",           366,       15.0918,       63.5908,            0.,NA,NA,"",   2.29223E+06,  -2.31913E+06,  -2.31913E+06
C:/temp/Job-7.odb,Step-1,Increment      1: Step Time =    1.000,"P-7-1",           367,       77.8935,       190.518,            0.,NA,NA,"",   7.29653E+06,   2.26805E+06,   2.26805E+06
C:/temp/Job-7.odb,Step-1,Increment      1: Step Time =    1.000,"P-7-1",           368,       63.5708,       184.724,            0.,NA,NA,"",   7.84093E+06,  -7.65433E+06,  -7.65433E+06
C:/temp/Job-7.odb,Step-1,Increment      1: Step Time =    1.000,"P-7-1",           369,       181.871,       58.3655,            0.,NA,NA,"",   3.47928E+06,   3.25113E+06,   3.25113E+06
C:/temp/Job-7.odb,Step-1,Increment      1: Step Time =    1.000,"P-7-1",           370,       30.8316,       160.973,            0.,NA,NA,"",   7.30126E+06,  -7.39402E+06,  -7.39402E+06
C:/temp/Job-7.odb,Step-1,Increment      1: Step Time =    1.000,"P-7-1",           371,       8.01895,       92.5412,            0.,NA,NA,"",   441.440E+03,  -455.013E+03,  -455.013E+03
C:/temp/Job-7.odb,Step-1,Increment      1: Step Time =    1.000,"P-7-1",           372,       190.725,       119.666,            0.,NA,NA,"",   7.46085E+06,  -2.56695E+06,  -2.56695E+06
C:/temp/Job-7.odb,Step-1,Increment      1: Step Time =    1.000,"P-7-1",           373,       169.037,       161.225,            0.,NA,NA,"",   6.42453E+06,   6.57119E+06,   6.57119E+06
C:/temp/Job-7.odb,Step-1,Increment      1: Step Time =    1.000,"P-7-1",           374,       165.390,       164.758,            0.,NA,NA,"",   7.28953E+06,   7.45759E+06,   7.45759E+06
C:/temp/Job-7.odb,Step-1,Increment      1: Step Time =    1.000,"P-7-1",           375,       62.3920,       15.9105,            0.,NA,NA,"",   8.33055E+06,  -8.25330E+06,  -8.25330E+06
C:/temp/Job-7.odb,Step-1,Increment      1: Step Time =    1.000,"P-7-1",           376,       98.1834,       7.82948,            0.,NA,NA,"",   14.5054E+06,   13.9282E+06,   13.9282E+06
C:/temp/Job-7.odb,Step-1,Increment      1: Step Time =    1.000,"P-7-1",           377,       191.748,       95.6746,            0.,NA,NA,"",   10.3263E+06,  -8.59282E+06,  -8.59282E+06
C:/temp/Job-7.odb,Step-1,Increment      1: Step Time =    1.000,"P-7-1",           378,       34.0642,       165.084,            0.,NA,NA,"",   7.88929E+06,  -8.01413E+06,  -8.01413E+06
C:/temp/Job-7.odb,Step-1,Increment      1: Step Time =    1.000,"P-7-1",           379,       160.160,       30.1739,            0.,NA,NA,"",   8.70409E+06,   8.89924E+06,   8.89924E+06
C:/temp/Job-7.odb,Step-1,Increment      1: Step Time =    1.000,"P-7-1",           380,       9.29814,       119.632,            0.,NA,NA,"",   890.232E+03,  -897.701E+03,  -897.701E+03
C:/temp/Job-7.odb,Step-1,Increment      1: Step Time =    1.000,"P-7-1",           381,       182.799,       139.571,            0.,NA,NA,"",   3.20591E+06,   2.85599E+06,   2.85599E+06
C:/temp/Job-7.odb,Step-1,Increment      1: Step Time =    1.000,"P-7-1",           382,       135.565,       185.567,            0.,NA,NA,"",   16.4174E+06,   16.7253E+06,   16.7253E+06
C:/temp/Job-7.odb,Step-1,Increment      1: Step Time =    1.000,"P-7-1",           383,       42.2192,       25.0919,            0.,NA,NA,"",   6.66843E+06,  -6.90964E+06,  -6.90964E+06
C:/temp/Job-7.odb,Step-1,Increment      1: Step Time =    1.000,"P-7-1",           384,       171.101,       41.0319,            0.,NA,NA,"",   6.01759E+06,   6.14337E+06,   6.14337E+06
C:/temp/Job-7.odb,Step-1,Increment      1: Step Time =    1.000,"P-7-1",           385,       145.116,       180.086,            0.,NA,NA,"",   14.6239E+06,   14.8390E+06,   14.8390E+06
C:/temp/Job-7.odb,Step-1,Increment      1: Step Time =    1.000,"P-7-1",           386,       8.31810,       109.224,            0.,NA,NA,"",   485.857E+03,  -497.094E+03,  -497.094E+03
C:/temp/Job-7.odb,Step-1,Increment      1: Step Time =    1.000,"P-7-1",           387,       48.0122,       22.3217,            0.,NA,NA,"",   7.97111E+06,  -8.17394E+06,  -8.17394E+06
C:/temp/Job-7.odb,Step-1,Increment      1: Step Time =    1.000,"P-7-1",           388,       163.863,       33.7445,            0.,NA,NA,"",   7.69583E+06,   7.86930E+06,   7.86930E+06
C:/temp/Job-7.odb,Step-1,Increment      1: Step Time =    1.000,"P-7-1",           389,       28.6078,       41.6848,            0.,NA,NA,"",   6.79531E+06,  -6.84727E+06,  -6.84727E+06
C:/temp/Job-7.odb,Step-1,Increment      1: Step Time =    1.000,"P-7-1",           390,       110.087,       191.632,            0.,NA,NA,"",   18.9398E+06,   18.9052E+06,   18.9052E+06
C:/temp/Job-7.odb,Step-1,Increment      1: Step Time =    1.000,"P-7-1",           391,       153.853,       174.912,            0.,NA,NA,"",   10.9661E+06,   11.1718E+06,   11.1718E+06
C:/temp/Job-7.odb,Step-1,Increment      1: Step Time =    1.000,"P-7-1",           392,       7.84569,       104.005,            0.,NA,NA,"",   373.666E+03,  -391.931E+03,  -391.931E+03
C:/temp/Job-7.odb,Step-1,Increment      1: Step Time =    1.000,"P-7-1",           393,       184.179,       62.9187,            0.,NA,NA,"",   2.97445E+06,   1.86006E+06,   1.86006E+06
C:/temp/Job-7.odb,Step-1,Increment      1: Step Time =    1.000,"P-7-1",           394,       191.877,       99.4770,            0.,NA,NA,"",   11.4649E+06,  -8.22668E+06,  -8.22668E+06
C:/temp/Job-7.odb,Step-1,Increment      1: Step Time =    1.000,"P-7-1",           395,       139.575,       16.4723,            0.,NA,NA,"",   16.2085E+06,   16.4735E+06,   16.4735E+06
C:/temp/Job-7.odb,Step-1,Increment      1: Step Time =    1.000,"P-7-1",           396,       135.573,       14.4255,            0.,NA,NA,"",   17.0467E+06,   17.2942E+06,   17.2942E+06
C:/temp/Job-7.odb,Step-1,Increment      1: Step Time =    1.000,"P-7-1",           397,       71.9860,       12.6641,            0.,NA,NA,"",   7.24491E+06,  -4.32625E+06,  -4.32625E+06
C:/temp/Job-7.odb,Step-1,Increment      1: Step Time =    1.000,"P-7-1",           398,       121.160,       190.568,            0.,NA,NA,"",   15.9716E+06,   16.2993E+06,   16.2993E+06
C:/temp/Job-7.odb,Step-1,Increment      1: Step Time =    1.000,"P-7-1",           399,       172.763,       157.602,            0.,NA,NA,"",   5.65819E+06,   5.76926E+06,   5.76926E+06
C:/temp/Job-7.odb,Step-1,Increment      1: Step Time =    1.000,"P-7-1",           400,       16.6705,       139.850,            0.,NA,NA,"",   2.77874E+06,  -2.80481E+06,  -2.80481E+06
C:/temp/Job-7.odb,Step-1,Increment      1: Step Time =    1.000,"P-7-1",           401,       108.370,       8.33133,            0.,NA,NA,"",   18.6945E+06,   18.5934E+06,   18.5934E+06
C:/temp/Job-7.odb,Step-1,Increment      1: Step Time =    1.000,"P-7-1",           402,       191.588,       109.273,            0.,NA,NA,"",   10.1598E+06,  -6.57875E+06,  -6.57875E+06
C:/temp/Job-7.odb,Step-1,Increment      1: Step Time =    1.000,"P-7-1",           403,       8.63245,       87.4646,            0.,NA,NA,"",   598.083E+03,  -603.918E+03,  -603.918E+03
C:/temp/Job-7.odb,Step-1,Increment      1: Step Time =    1.000,"P-7-1",           404,       103.314,       8.06304,            0.,NA,NA,"",   17.1291E+06,   16.8394E+06,   16.8394E+06
C:/temp/Job-7.odb,Step-1,Increment      1: Step Time =    1.000,"P-7-1",           405,       115.340,       191.118,            0.,NA,NA,"",   18.7322E+06,   18.9258E+06,   18.9258E+06
C:/temp/Job-7.odb,Step-1,Increment      1: Step Time =    1.000,"P-7-1",           406,       25.2419,       45.5676,            0.,NA,NA,"",   5.79595E+06,  -5.82565E+06,  -5.82565E+06
C:/temp/Job-7.odb,Step-1,Increment      1: Step Time =    1.000,"P-7-1",           407,       27.9612,       156.881,            0.,NA,NA,"",   6.51150E+06,  -6.56535E+06,  -6.56535E+06
C:/temp/Job-7.odb,Step-1,Increment      1: Step Time =    1.000,"P-7-1",           408,       42.1932,       171.661,            0.,NA,NA,"",   9.25845E+06,  -9.41474E+06,  -9.41474E+06
C:/temp/Job-7.odb,Step-1,Increment      1: Step Time =    1.000,"P-7-1",           409,       19.7854,       54.2153,            0.,NA,NA,"",   3.86124E+06,  -3.88801E+06,  -3.88801E+06
C:/temp/Job-7.odb,Step-1,Increment      1: Step Time =    1.000,"P-7-1",           410,       14.6736,       135.198,            0.,NA,NA,"",   2.12617E+06,  -2.15204E+06,  -2.15204E+06
C:/temp/Job-7.odb,Step-1,Increment      1: Step Time =    1.000,"P-7-1",           411,       123.295,       9.61053,            0.,NA,NA,"",   15.8783E+06,   16.1618E+06,   16.1618E+06
C:/temp/Job-7.odb,Step-1,Increment      1: Step Time =    1.000,"P-7-1",           412,       38.7025,       30.0822,            0.,NA,NA,"",   8.24403E+06,  -8.40621E+06,  -8.40621E+06
C:/temp/Job-7.odb,Step-1,Increment      1: Step Time =    1.000,"P-7-1",           413,       174.556,       44.8705,            0.,NA,NA,"",   5.38573E+06,   5.46226E+06,   5.46226E+06
C:/temp/Job-7.odb,Step-1,Increment      1: Step Time =    1.000,"P-7-1",           414,       67.2529,       14.0625,            0.,NA,NA,"",   7.80605E+06,  -7.43400E+06,  -7.43400E+06
C:/temp/Job-7.odb,Step-1,Increment      1: Step Time =    1.000,"P-7-1",           415,       35.4204,       34.1009,            0.,NA,NA,"",   8.28989E+06,  -8.38491E+06,  -8.38491E+06
C:/temp/Job-7.odb,Step-1,Increment      1: Step Time =    1.000,"P-7-1",           416,       13.6916,       68.4873,            0.,NA,NA,"",   1.74162E+06,  -1.76495E+06,  -1.76495E+06
C:/temp/Job-7.odb,Step-1,Increment      1: Step Time =    1.000,"P-7-1",           417,       81.5184,       9.40673,            0.,NA,NA,"",   7.29537E+06,   4.11209E+06,   4.11209E+06
C:/temp/Job-7.odb,Step-1,Increment      1: Step Time =    1.000,"P-7-1",           418,       132.270,       13.0051,            0.,NA,NA,"",   17.7731E+06,   18.0824E+06,   18.0824E+06
C:/temp/Job-7.odb,Step-1,Increment      1: Step Time =    1.000,"P-7-1",           419,       191.814,       104.257,            0.,NA,NA,"",   11.2147E+06,  -7.77010E+06,  -7.77010E+06
C:/temp/Job-7.odb,Step-1,Increment      1: Step Time =    1.000,"P-7-1",           420,       191.217,       114.373,            0.,NA,NA,"",   8.92336E+06,  -4.73340E+06,  -4.73340E+06
C:/temp/Job-7.odb,Step-1,Increment      1: Step Time =    1.000,"P-7-1",           421,       192.000,       90.0356,            0.,NA,NA,"",   9.81818E+06,  -5.08215E+06,  -5.08215E+06
C:/temp/Job-7.odb,Step-1,Increment      1: Step Time =    1.000,"P-7-1",           422,       189.841,       87.8179,            0.,NA,NA,"",   12.1509E+06,  -11.6465E+06,  -11.6465E+06
C:/temp/Job-7.odb,Step-1,Increment      1: Step Time =    1.000,"P-7-1",           423,       32.0673,       37.9192,            0.,NA,NA,"",   7.69334E+06,  -7.77018E+06,  -7.77018E+06
C:/temp/Job-7.odb,Step-1,Increment      1: Step Time =    1.000,"P-7-1",           424,       12.5676,       130.687,            0.,NA,NA,"",   1.63581E+06,  -1.65618E+06,  -1.65618E+06
C:/temp/Job-7.odb,Step-1,Increment      1: Step Time =    1.000,"P-7-1",           425,       156.279,       26.8432,            0.,NA,NA,"",   9.98499E+06,   10.1781E+06,   10.1781E+06
C:/temp/Job-7.odb,Step-1,Increment      1: Step Time =    1.000,"P-7-1",           426,       176.350,       153.636,            0.,NA,NA,"",   5.00901E+06,   5.06150E+06,   5.06150E+06
C:/temp/Job-7.odb,Step-1,Increment      1: Step Time =    1.000,"P-7-1",           427,       9.38796,       82.4488,            0.,NA,NA,"",   803.433E+03,  -807.176E+03,  -807.176E+03
C:/temp/Job-7.odb,Step-1,Increment      1: Step Time =    1.000,"P-7-1",           428,       113.415,       8.70632,            0.,NA,NA,"",   18.9788E+06,   19.0648E+06,   19.0648E+06
C:/temp/Job-7.odb,Step-1,Increment      1: Step Time =    1.000,"P-7-1",           429,       186.533,       67.6248,            0.,NA,NA,"",   3.50879E+06,   412.003E+03,   412.003E+03
C:/temp/Job-7.odb,Step-1,Increment      1: Step Time =    1.000,"P-7-1",           430,       140.563,       182.593,            0.,NA,NA,"",   16.2641E+06,   16.5634E+06,   16.5634E+06
C:/temp/Job-7.odb,Step-1,Increment      1: Step Time =    1.000,"P-7-1",           431,       17.3100,       58.7561,            0.,NA,NA,"",   3.01516E+06,  -3.04311E+06,  -3.04311E+06
C:/temp/Job-7.odb,Step-1,Increment      1: Step Time =    1.000,"P-7-1",           432,       104.782,       192.167,            0.,NA,NA,"",   17.2176E+06,   16.9150E+06,   16.9150E+06
C:/temp/Job-7.odb,Step-1,Increment      1: Step Time =    1.000,"P-7-1",           433,       7.01480,       98.0992,            0.,NA,NA,"",   327.725E+03,  -350.604E+03,  -350.604E+03
C:/temp/Job-7.odb,Step-1,Increment      1: Step Time =    1.000,"P-7-1",           434,       24.7132,       153.412,            0.,NA,NA,"",   5.51206E+06,  -5.53481E+06,  -5.53481E+06
C:/temp/Job-7.odb,Step-1,Increment      1: Step Time =    1.000,"P-7-1",           435,       185.090,       135.274,            0.,NA,NA,"",   3.07208E+06,   1.53931E+06,   1.53931E+06
C:/temp/Job-7.odb,Step-1,Increment      1: Step Time =    1.000,"P-7-1",           436,       8.77072,       114.354,            0.,NA,NA,"",   655.422E+03,  -662.899E+03,  -662.899E+03
C:/temp/Job-7.odb,Step-1,Increment      1: Step Time =    1.000,"P-7-1",           437,       187.428,       130.824,            0.,NA,NA,"",   4.18492E+06,   218.312E+03,   218.312E+03
C:/temp/Job-7.odb,Step-1,Increment      1: Step Time =    1.000,"P-7-1",           438,       167.481,       37.3510,            0.,NA,NA,"",   6.81063E+06,   6.95850E+06,   6.95850E+06
C:/temp/Job-7.odb,Step-1,Increment      1: Step Time =    1.000,"P-7-1",           439,       38.0612,       168.507,            0.,NA,NA,"",   8.58799E+06,  -8.73135E+06,  -8.73135E+06
C:/temp/Job-7.odb,Step-1,Increment      1: Step Time =    1.000,"P-7-1",           440,       98.6793,       192.999,            0.,NA,NA,"",   13.7265E+06,   13.0315E+06,   13.0315E+06
C:/temp/Job-7.odb,Step-1,Increment      1: Step Time =    1.000,"P-7-1",           441,       161.716,       168.281,            0.,NA,NA,"",   8.30205E+06,   8.48024E+06,   8.48024E+06
C:/temp/Job-7.odb,Step-1,Increment      1: Step Time =    1.000,"P-7-1",           442,       124.816,       196.004,            0.,NA,NA,"",   8.32050E+06,  -7.08687E+06,  -7.08687E+06
C:/temp/Job-7.odb,Step-1,Increment      1: Step Time =    1.000,"P-7-1",           443,       155.137,       195.248,            0.,NA,NA,"",   4.61756E+06,  -4.39396E+06,  -4.39396E+06
C:/temp/Job-7.odb,Step-1,Increment      1: Step Time =    1.000,"P-7-1",           444,       145.444,       195.732,            0.,NA,NA,"",   6.40741E+06,  -6.23108E+06,  -6.23108E+06
C:/temp/Job-7.odb,Step-1,Increment      1: Step Time =    1.000,"P-7-1",           445,       135.356,       193.770,            0.,NA,NA,"",   6.89075E+06,  -2.10202E+06,  -2.10202E+06
C:/temp/Job-7.odb,Step-1,Increment      1: Step Time =    1.000,"P-7-1",           446,       105.007,       196.059,            0.,NA,NA,"",   9.57198E+06,  -616.157E+03,  -616.157E+03
C:/temp/Job-7.odb,Step-1,Increment      1: Step Time =    1.000,"P-7-1",           447,       91.3316,       196.155,            0.,NA,NA,"",   9.00599E+06,   8.16258E+06,   8.16258E+06
C:/temp/Job-7.odb,Step-1,Increment      1: Step Time =    1.000,"P-7-1",           448,       4.49364,       174.949,            0.,NA,NA,"",   1.67261E+06,   1.86665E+06,   1.86665E+06
C:/temp/Job-7.odb,Step-1,Increment      1: Step Time =    1.000,"P-7-1",           449,       4.09001,       165.243,            0.,NA,NA,"",   1.18877E+06,  -710.859E+03,  -710.859E+03
C:/temp/Job-7.odb,Step-1,Increment      1: Step Time =    1.000,"P-7-1",           450,       196.136,       134.641,            0.,NA,NA,"",   5.34319E+06,   5.45956E+06,   5.45956E+06
C:/temp/Job-7.odb,Step-1,Increment      1: Step Time =    1.000,"P-7-1",           451,       195.618,       144.004,            0.,NA,NA,"",   2.74290E+06,   2.64978E+06,   2.64978E+06
C:/temp/Job-7.odb,Step-1,Increment      1: Step Time =    1.000,"P-7-1",           452,       195.272,       155.052,            0.,NA,NA,"",   2.28972E+06,   813.616E+03,   813.616E+03
C:/temp/Job-7.odb,Step-1,Increment      1: Step Time =    1.000,"P-7-1",           453,       195.436,       125.042,            0.,NA,NA,"",   8.70070E+06,   8.56388E+06,   8.56388E+06
C:/temp/Job-7.odb,Step-1,Increment      1: Step Time =    1.000,"P-7-1",           454,       195.546,       114.778,            0.,NA,NA,"",   11.2945E+06,   11.1652E+06,   11.1652E+06
C:/temp/Job-7.odb,Step-1,Increment      1: Step Time =    1.000,"P-7-1",           455,       195.850,       104.640,            0.,NA,NA,"",   13.1471E+06,   13.2099E+06,   13.2099E+06
C:/temp/Job-7.odb,Step-1,Increment      1: Step Time =    1.000,"P-7-1",           456,       195.695,       65.3009,            0.,NA,NA,"",   5.47353E+06,   5.39194E+06,   5.39194E+06
C:/temp/Job-7.odb,Step-1,Increment      1: Step Time =    1.000,"P-7-1",           457,       164.358,       8.93705,            0.,NA,NA,"",   2.41527E+06,  -250.346E+03,  -250.346E+03
C:/temp/Job-7.odb,Step-1,Increment      1: Step Time =    1.000,"P-7-1",           458,       174.867,       4.80022,            0.,NA,NA,"",   1.87989E+06,  -1.59878E+06,  -1.59878E+06
C:/temp/Job-7.odb,Step-1,Increment      1: Step Time =    1.000,"P-7-1",           459,       194.662,       85.1948,            0.,NA,NA,"",   10.4173E+06,   8.30044E+06,   8.30044E+06
C:/temp/Job-7.odb,Step-1,Increment      1: Step Time =    1.000,"P-7-1",           460,       196.892,       89.8055,            0.,NA,NA,"",   16.2411E+06,   16.2901E+06,   16.2901E+06
C:/temp/Job-7.odb,Step-1,Increment      1: Step Time =    1.000,"P-7-1",           461,       144.399,       4.13196,            0.,NA,NA,"",   6.16465E+06,  -6.05287E+06,  -6.05287E+06
C:/temp/Job-7.odb,Step-1,Increment      1: Step Time =    1.000,"P-7-1",           462,       154.549,       4.29179,            0.,NA,NA,"",   4.70702E+06,  -4.55403E+06,  -4.55403E+06
C:/temp/Job-7.odb,Step-1,Increment      1: Step Time =    1.000,"P-7-1",           463,       124.198,       4.68135,            0.,NA,NA,"",   9.52673E+06,  -5.15728E+06,  -5.15728E+06
C:/temp/Job-7.odb,Step-1,Increment      1: Step Time =    1.000,"P-7-1",           464,       134.001,       4.76157,            0.,NA,NA,"",   7.24674E+06,  -5.27981E+06,  -5.27981E+06
C:/temp/Job-7.odb,Step-1,Increment      1: Step Time =    1.000,"P-7-1",           465,       114.273,       4.38322,            0.,NA,NA,"",   11.2887E+06,  -3.03377E+06,  -3.03377E+06
C:/temp/Job-7.odb,Step-1,Increment      1: Step Time =    1.000,"P-7-1",           466,       104.216,       4.03997,            0.,NA,NA,"",   9.71509E+06,   364.023E+03,   364.023E+03
C:/temp/Job-7.odb,Step-1,Increment      1: Step Time =    1.000,"P-7-1",           467,       94.5169,       3.32315,            0.,NA,NA,"",   7.45778E+06,   4.99721E+06,   4.99721E+06
C:/temp/Job-7.odb,Step-1,Increment      1: Step Time =    1.000,"P-7-1",           468,       85.5883,       4.27531,            0.,NA,NA,"",   11.3370E+06,   10.6828E+06,   10.6828E+06
C:/temp/Job-7.odb,Step-1,Increment      1: Step Time =    1.000,"P-7-1",           469,       54.8550,       4.61427,            0.,NA,NA,"",   16.1707E+06,   16.0092E+06,   16.0092E+06
C:/temp/Job-7.odb,Step-1,Increment      1: Step Time =    1.000,"P-7-1",           470,       4.59993,       54.7216,            0.,NA,NA,"",   2.69961E+06,  -2.68594E+06,  -2.68594E+06
C:/temp/Job-7.odb,Step-1,Increment      1: Step Time =    1.000,"P-7-1",           471,       4.90810,       44.7152,            0.,NA,NA,"",   2.55105E+06,  -2.51319E+06,  -2.51319E+06
C:/temp/Job-7.odb,Step-1,Increment      1: Step Time =    1.000,"P-7-1",           472,       9.54300,       34.5409,            0.,NA,NA,"",   1.82563E+06,  -1.42001E+06,  -1.42001E+06
C:/temp/Job-7.odb,Step-1,Increment      1: Step Time =    1.000,"P-7-1",           473,       44.7935,       5.28049,            0.,NA,NA,"",   14.4065E+06,   14.3492E+06,   14.3492E+06
C:/temp/Job-7.odb,Step-1,Increment      1: Step Time =    1.000,"P-7-1",           474,       3.27182,       95.6825,            0.,NA,NA,"",   261.361E+03,  -283.176E+03,  -283.176E+03
C:/temp/Job-7.odb,Step-1,Increment      1: Step Time =    1.000,"P-7-1",           475,       4.58974,       124.988,            0.,NA,NA,"",   1.23102E+06,  -1.18107E+06,  -1.18107E+06
C:/temp/Job-7.odb,Step-1,Increment      1: Step Time =    1.000,"P-7-1",           476,       4.20149,       109.696,            0.,NA,NA,"",   440.029E+03,  -443.745E+03,  -443.745E+03
C:/temp/Job-7.odb,Step-1,Increment      1: Step Time =    1.000,"P-7-1",           477,       4.39170,       86.0625,            0.,NA,NA,"",   607.118E+03,  -588.483E+03,  -588.483E+03
C:/temp/Job-7.odb,Step-1,Increment      1: Step Time =    1.000,"P-7-1",           478,       4.71949,       64.1044,            0.,NA,NA,"",   2.09681E+06,  -2.05738E+06,  -2.05738E+06
C:/temp/Job-7.odb,Step-1,Increment      1: Step Time =    1.000,"P-7-1",           479,       5.88774,       74.9352,            0.,NA,NA,"",   1.25097E+06,  -1.21883E+06,  -1.21883E+06
C:/temp/Job-7.odb,Step-1,Increment      1: Step Time =    1.000,"P-7-1",           480,       64.3765,       3.90467,            0.,NA,NA,"",   16.8056E+06,   16.6307E+06,   16.6307E+06
C:/temp/Job-7.odb,Step-1,Increment      1: Step Time =    1.000,"P-7-1",           481,       74.3168,       5.87724,            0.,NA,NA,"",   11.9106E+06,   11.1942E+06,   11.1942E+06
C:/temp/Job-7.odb,Step-1,Increment      1: Step Time =    1.000,"P-7-1",           482,       4.07554,       134.634,            0.,NA,NA,"",   2.00673E+06,  -1.95804E+06,  -1.95804E+06
C:/temp/Job-7.odb,Step-1,Increment      1: Step Time =    1.000,"P-7-1",           483,       86.4620,       195.800,            0.,NA,NA,"",   11.3472E+06,   10.6351E+06,   10.6351E+06
C:/temp/Job-7.odb,Step-1,Increment      1: Step Time =    1.000,"P-7-1",           484,       4.98017,       4.96195,            0.,NA,NA,"",   9.77827E+06,   10.1446E+06,   10.1446E+06
C:/temp/Job-7.odb,Step-1,Increment      1: Step Time =    1.000,"P-7-1",           485,       5.00721,       14.9191,            0.,NA,NA,"",   5.30935E+06,   5.78953E+06,   5.78953E+06
C:/temp/Job-7.odb,Step-1,Increment      1: Step Time =    1.000,"P-7-1",           486,       4.92487,       24.8036,            0.,NA,NA,"",   1.79638E+06,   2.00861E+06,   2.00861E+06
C:/temp/Job-7.odb,Step-1,Increment      1: Step Time =    1.000,"P-7-1",           487,       14.9243,       4.80820,            0.,NA,NA,"",   10.6862E+06,   10.7268E+06,   10.7268E+06
C:/temp/Job-7.odb,Step-1,Increment      1: Step Time =    1.000,"P-7-1",           488,       24.8948,       4.61796,            0.,NA,NA,"",   12.0608E+06,   12.0471E+06,   12.0471E+06
C:/temp/Job-7.odb,Step-1,Increment      1: Step Time =    1.000,"P-7-1",           489,       34.7325,       4.54455,            0.,NA,NA,"",   13.5944E+06,   13.5924E+06,   13.5924E+06
C:/temp/Job-7.odb,Step-1,Increment      1: Step Time =    1.000,"P-7-1",           490,       184.924,       4.92229,            0.,NA,NA,"",   1.10225E+06,   401.593E+03,   401.593E+03
C:/temp/Job-7.odb,Step-1,Increment      1: Step Time =    1.000,"P-7-1",           491,       194.896,       25.0883,            0.,NA,NA,"",   2.45778E+06,  -327.973E+03,  -327.973E+03
C:/temp/Job-7.odb,Step-1,Increment      1: Step Time =    1.000,"P-7-1",           492,       195.002,       35.0442,            0.,NA,NA,"",    2.5318E+06,  -399.621E+03,  -399.621E+03
C:/temp/Job-7.odb,Step-1,Increment      1: Step Time =    1.000,"P-7-1",           493,       195.397,       44.8944,            0.,NA,NA,"",   2.25269E+06,    764.44E+03,    764.44E+03
C:/temp/Job-7.odb,Step-1,Increment      1: Step Time =    1.000,"P-7-1",           494,       194.893,       55.1792,            0.,NA,NA,"",   2.95413E+06,   2.77147E+06,   2.77147E+06
C:/temp/Job-7.odb,Step-1,Increment      1: Step Time =    1.000,"P-7-1",           495,       194.954,       5.00298,            0.,NA,NA,"",   1.04624E+06,   893.564E+03,   893.564E+03
C:/temp/Job-7.odb,Step-1,Increment      1: Step Time =    1.000,"P-7-1",           496,       194.772,       15.0714,            0.,NA,NA,"",   1.87737E+06,   541.998E+03,   541.998E+03
C:/temp/Job-7.odb,Step-1,Increment      1: Step Time =    1.000,"P-7-1",           497,       197.028,       74.6052,            0.,NA,NA,"",   9.75272E+06,   9.97341E+06,   9.97341E+06
C:/temp/Job-7.odb,Step-1,Increment      1: Step Time =    1.000,"P-7-1",           498,       190.648,       164.903,            0.,NA,NA,"",   2.19614E+06,   1.63526E+06,   1.63526E+06
C:/temp/Job-7.odb,Step-1,Increment      1: Step Time =    1.000,"P-7-1",           499,       195.261,       174.901,            0.,NA,NA,"",   2.49540E+06,  -1.03407E+06,  -1.03407E+06
C:/temp/Job-7.odb,Step-1,Increment      1: Step Time =    1.000,"P-7-1",           500,       165.072,       194.982,            0.,NA,NA,"",   3.06916E+06,  -2.80929E+06,  -2.80929E+06
C:/temp/Job-7.odb,Step-1,Increment      1: Step Time =    1.000,"P-7-1",           501,       194.985,       184.821,            0.,NA,NA,"",   1.89059E+06,   540.596E+03,   540.596E+03
C:/temp/Job-7.odb,Step-1,Increment      1: Step Time =    1.000,"P-7-1",           502,       175.071,       194.989,            0.,NA,NA,"",   1.86658E+06,  -1.56664E+06,  -1.56664E+06
C:/temp/Job-7.odb,Step-1,Increment      1: Step Time =    1.000,"P-7-1",           503,       194.944,       194.918,            0.,NA,NA,"",   1.05679E+06,   897.432E+03,   897.432E+03
C:/temp/Job-7.odb,Step-1,Increment      1: Step Time =    1.000,"P-7-1",           504,       184.934,       194.860,            0.,NA,NA,"",   1.10263E+06,  -57.0519E+03,  -57.0519E+03
C:/temp/Job-7.odb,Step-1,Increment      1: Step Time =    1.000,"P-7-1",           505,       115.231,       195.574,            0.,NA,NA,"",   11.3115E+06,  -3.42179E+06,  -3.42179E+06
C:/temp/Job-7.odb,Step-1,Increment      1: Step Time =    1.000,"P-7-1",           506,       81.4504,       195.503,            0.,NA,NA,"",   12.9115E+06,   12.1686E+06,   12.1686E+06
C:/temp/Job-7.odb,Step-1,Increment      1: Step Time =    1.000,"P-7-1",           507,       76.3526,       195.251,            0.,NA,NA,"",   13.9162E+06,   13.2847E+06,   13.2847E+06
C:/temp/Job-7.odb,Step-1,Increment      1: Step Time =    1.000,"P-7-1",           508,       66.3344,       195.559,            0.,NA,NA,"",   15.4920E+06,   15.2406E+06,   15.2406E+06
C:/temp/Job-7.odb,Step-1,Increment      1: Step Time =    1.000,"P-7-1",           509,       55.3079,       195.325,            0.,NA,NA,"",   16.0489E+06,   15.9252E+06,   15.9252E+06
C:/temp/Job-7.odb,Step-1,Increment      1: Step Time =    1.000,"P-7-1",           510,       5.00344,       194.995,            0.,NA,NA,"",    9.7419E+06,   10.1208E+06,   10.1208E+06
C:/temp/Job-7.odb,Step-1,Increment      1: Step Time =    1.000,"P-7-1",           511,       4.99788,       184.871,            0.,NA,NA,"",   5.23032E+06,   5.70360E+06,   5.70360E+06
C:/temp/Job-7.odb,Step-1,Increment      1: Step Time =    1.000,"P-7-1",           512,       4.44246,       155.235,            0.,NA,NA,"",   2.50794E+06,  -2.48904E+06,  -2.48904E+06
C:/temp/Job-7.odb,Step-1,Increment      1: Step Time =    1.000,"P-7-1",           513,       4.58704,       144.731,            0.,NA,NA,"",   2.64849E+06,  -2.63600E+06,  -2.63600E+06
C:/temp/Job-7.odb,Step-1,Increment      1: Step Time =    1.000,"P-7-1",           514,       45.2941,       194.976,            0.,NA,NA,"",   14.5589E+06,   14.4505E+06,   14.4505E+06
C:/temp/Job-7.odb,Step-1,Increment      1: Step Time =    1.000,"P-7-1",           515,       34.9161,       194.744,            0.,NA,NA,"",   12.9251E+06,   12.9219E+06,   12.9219E+06
C:/temp/Job-7.odb,Step-1,Increment      1: Step Time =    1.000,"P-7-1",           516,       24.7879,       194.942,            0.,NA,NA,"",   11.6995E+06,   11.7077E+06,   11.7077E+06
C:/temp/Job-7.odb,Step-1,Increment      1: Step Time =    1.000,"P-7-1",           517,       14.9251,       194.988,            0.,NA,NA,"",   10.5832E+06,   10.6124E+06,   10.6124E+06
C:/temp/Job-7.odb,Step-1,Increment      1: Step Time =    1.000,"P-7-1",           518,       195.270,       93.8649,            0.,NA,NA,"",   12.8457E+06,   9.44188E+06,   9.44188E+06
C:/temp/Job-7.odb,Step-1,Increment      1: Step Time =    1.000,"P-7-1",           519,       4.44185,       114.774,            0.,NA,NA,"",   654.257E+03,  -635.532E+03,  -635.532E+03
C:/temp/Job-7.odb,Step-1,Increment      1: Step Time =    1.000,"P-7-1",           520,       3.90492,       104.640,            0.,NA,NA,"",   281.855E+03,  -304.453E+03,  -304.453E+03
C:/temp/Job-7.odb,Step-1,Increment      1: Step Time =    1.000,"P-7-1",           521,       189.946,       4.96565,            0.,NA,NA,"",   1.02007E+06,   758.781E+03,   758.781E+03
C:/temp/Job-7.odb,Step-1,Increment      1: Step Time =    1.000,"P-7-1",           522,       179.929,       4.90062,            0.,NA,NA,"",   1.42004E+06,  -600.938E+03,  -600.938E+03
C:/temp/Job-7.odb,Step-1,Increment      1: Step Time =    1.000,"P-7-1",           523,       169.464,       9.22322,            0.,NA,NA,"",   2.18959E+06,  -49.2620E+03,  -49.2620E+03
C:/temp/Job-7.odb,Step-1,Increment      1: Step Time =    1.000,"P-7-1",           524,       159.682,       4.36389,            0.,NA,NA,"",   3.88971E+06,  -3.74851E+06,  -3.74851E+06
C:/temp/Job-7.odb,Step-1,Increment      1: Step Time =    1.000,"P-7-1",           525,       149.341,       4.34360,            0.,NA,NA,"",   5.60585E+06,  -5.44723E+06,  -5.44723E+06
C:/temp/Job-7.odb,Step-1,Increment      1: Step Time =    1.000,"P-7-1",           526,       139.318,       4.71351,            0.,NA,NA,"",   6.38744E+06,  -5.70249E+06,  -5.70249E+06
C:/temp/Job-7.odb,Step-1,Increment      1: Step Time =    1.000,"P-7-1",           527,       128.980,       4.77591,            0.,NA,NA,"",   8.15907E+06,  -5.50134E+06,  -5.50134E+06
C:/temp/Job-7.odb,Step-1,Increment      1: Step Time =    1.000,"P-7-1",           528,       119.282,       4.55633,            0.,NA,NA,"",   10.9761E+06,  -4.18750E+06,  -4.18750E+06
C:/temp/Job-7.odb,Step-1,Increment      1: Step Time =    1.000,"P-7-1",           529,       109.236,       4.20711,            0.,NA,NA,"",   10.8812E+06,  -1.52199E+06,  -1.52199E+06
C:/temp/Job-7.odb,Step-1,Increment      1: Step Time =    1.000,"P-7-1",           530,       99.2541,       3.83023,            0.,NA,NA,"",   8.04810E+06,   2.30492E+06,   2.30492E+06
C:/temp/Job-7.odb,Step-1,Increment      1: Step Time =    1.000,"P-7-1",           531,       90.4514,       3.44300,            0.,NA,NA,"",   9.07639E+06,   8.26243E+06,   8.26243E+06
C:/temp/Job-7.odb,Step-1,Increment      1: Step Time =    1.000,"P-7-1",           532,       80.3584,       4.92307,            0.,NA,NA,"",   12.5278E+06,   11.8571E+06,   11.8571E+06
C:/temp/Job-7.odb,Step-1,Increment      1: Step Time =    1.000,"P-7-1",           533,       68.9101,       4.62074,            0.,NA,NA,"",   15.2091E+06,   14.8820E+06,   14.8820E+06
C:/temp/Job-7.odb,Step-1,Increment      1: Step Time =    1.000,"P-7-1",           534,       59.7021,       4.12375,            0.,NA,NA,"",   16.9980E+06,   16.8815E+06,   16.8815E+06
C:/temp/Job-7.odb,Step-1,Increment      1: Step Time =    1.000,"P-7-1",           535,       49.8326,       5.08423,            0.,NA,NA,"",   15.1247E+06,   15.0167E+06,   15.0167E+06
C:/temp/Job-7.odb,Step-1,Increment      1: Step Time =    1.000,"P-7-1",           536,       39.7972,       4.79976,            0.,NA,NA,"",   14.0435E+06,   14.0206E+06,   14.0206E+06
C:/temp/Job-7.odb,Step-1,Increment      1: Step Time =    1.000,"P-7-1",           537,       29.8403,       4.53306,            0.,NA,NA,"",   12.8818E+06,   12.8583E+06,   12.8583E+06
C:/temp/Job-7.odb,Step-1,Increment      1: Step Time =    1.000,"P-7-1",           538,       19.8959,       4.69413,            0.,NA,NA,"",   11.3082E+06,   11.3222E+06,   11.3222E+06
C:/temp/Job-7.odb,Step-1,Increment      1: Step Time =    1.000,"P-7-1",           539,       9.95765,       4.89431,            0.,NA,NA,"",   10.2944E+06,   10.3518E+06,   10.3518E+06
C:/temp/Job-7.odb,Step-1,Increment      1: Step Time =    1.000,"P-7-1",           540,       194.936,       189.861,            0.,NA,NA,"",   1.45827E+06,   1.03047E+06,   1.03047E+06
C:/temp/Job-7.odb,Step-1,Increment      1: Step Time =    1.000,"P-7-1",           541,       195.103,       179.847,            0.,NA,NA,"",   2.24164E+06,  -153.449E+03,  -153.449E+03
C:/temp/Job-7.odb,Step-1,Increment      1: Step Time =    1.000,"P-7-1",           542,       190.805,       169.855,            0.,NA,NA,"",   2.17798E+06,   841.421E+03,   841.421E+03
C:/temp/Job-7.odb,Step-1,Increment      1: Step Time =    1.000,"P-7-1",           543,       195.159,       159.931,            0.,NA,NA,"",   2.44692E+06,  -206.112E+03,  -206.112E+03
C:/temp/Job-7.odb,Step-1,Increment      1: Step Time =    1.000,"P-7-1",           544,       194.027,       149.317,            0.,NA,NA,"",   2.62143E+06,   2.20766E+06,   2.20766E+06
C:/temp/Job-7.odb,Step-1,Increment      1: Step Time =    1.000,"P-7-1",           545,       196.349,       139.273,            0.,NA,NA,"",   3.74085E+06,   3.79097E+06,   3.79097E+06
C:/temp/Job-7.odb,Step-1,Increment      1: Step Time =    1.000,"P-7-1",           546,       196.105,       129.891,            0.,NA,NA,"",   7.06809E+06,   7.11459E+06,   7.11459E+06
C:/temp/Job-7.odb,Step-1,Increment      1: Step Time =    1.000,"P-7-1",           547,       195.352,       119.923,            0.,NA,NA,"",   9.99515E+06,   9.82508E+06,   9.82508E+06
C:/temp/Job-7.odb,Step-1,Increment      1: Step Time =    1.000,"P-7-1",           548,       195.734,       109.693,            0.,NA,NA,"",   12.3871E+06,   12.3632E+06,   12.3632E+06
C:/temp/Job-7.odb,Step-1,Increment      1: Step Time =    1.000,"P-7-1",           549,       195.835,       99.5575,            0.,NA,NA,"",   12.9684E+06,   13.2193E+06,   13.2193E+06
C:/temp/Job-7.odb,Step-1,Increment      1: Step Time =    1.000,"P-7-1",           550,       194.606,       77.9016,            0.,NA,NA,"",   8.90301E+06,   8.53443E+06,   8.53443E+06
C:/temp/Job-7.odb,Step-1,Increment      1: Step Time =    1.000,"P-7-1",           551,       196.082,       70.3408,            0.,NA,NA,"",   7.59304E+06,   7.53525E+06,   7.53525E+06
C:/temp/Job-7.odb,Step-1,Increment      1: Step Time =    1.000,"P-7-1",           552,       195.883,       60.4897,            0.,NA,NA,"",   3.84754E+06,   3.84210E+06,   3.84210E+06
C:/temp/Job-7.odb,Step-1,Increment      1: Step Time =    1.000,"P-7-1",           553,       195.524,       49.7764,            0.,NA,NA,"",   2.20526E+06,   1.82393E+06,   1.82393E+06
C:/temp/Job-7.odb,Step-1,Increment      1: Step Time =    1.000,"P-7-1",           554,       195.174,       40.0057,            0.,NA,NA,"",   2.42782E+06,  -183.884E+03,  -183.884E+03
C:/temp/Job-7.odb,Step-1,Increment      1: Step Time =    1.000,"P-7-1",           555,       194.915,       30.0710,            0.,NA,NA,"",   2.54147E+06,  -452.810E+03,  -452.810E+03
C:/temp/Job-7.odb,Step-1,Increment      1: Step Time =    1.000,"P-7-1",           556,       194.694,       20.1254,            0.,NA,NA,"",   2.23506E+06,  -119.100E+03,  -119.100E+03
C:/temp/Job-7.odb,Step-1,Increment      1: Step Time =    1.000,"P-7-1",           557,       194.887,       10.0084,            0.,NA,NA,"",   1.42829E+06,   1.01105E+06,   1.01105E+06
C:/temp/Job-7.odb,Step-1,Increment      1: Step Time =    1.000,"P-7-1",           558,       9.96294,       194.997,            0.,NA,NA,"",   10.2244E+06,   10.2824E+06,   10.2824E+06
C:/temp/Job-7.odb,Step-1,Increment      1: Step Time =    1.000,"P-7-1",           559,       19.8316,       194.946,            0.,NA,NA,"",   11.1181E+06,   11.1310E+06,   11.1310E+06
C:/temp/Job-7.odb,Step-1,Increment      1: Step Time =    1.000,"P-7-1",           560,       29.7921,       194.896,            0.,NA,NA,"",   12.3349E+06,   12.3423E+06,   12.3423E+06
C:/temp/Job-7.odb,Step-1,Increment      1: Step Time =    1.000,"P-7-1",           561,       40.1190,       194.584,            0.,NA,NA,"",   13.5961E+06,   13.5420E+06,   13.5420E+06
C:/temp/Job-7.odb,Step-1,Increment      1: Step Time =    1.000,"P-7-1",           562,       50.3318,       195.219,            0.,NA,NA,"",   15.5394E+06,   15.4325E+06,   15.4325E+06
C:/temp/Job-7.odb,Step-1,Increment      1: Step Time =    1.000,"P-7-1",           563,       60.9776,       194.691,            0.,NA,NA,"",   14.4315E+06,   14.2511E+06,   14.2511E+06
C:/temp/Job-7.odb,Step-1,Increment      1: Step Time =    1.000,"P-7-1",           564,       71.3097,       195.225,            0.,NA,NA,"",   14.7827E+06,   14.3532E+06,   14.3532E+06
C:/temp/Job-7.odb,Step-1,Increment      1: Step Time =    1.000,"P-7-1",           565,       110.132,       195.776,            0.,NA,NA,"",   11.1804E+06,  -1.88689E+06,  -1.88689E+06
C:/temp/Job-7.odb,Step-1,Increment      1: Step Time =    1.000,"P-7-1",           566,       120.211,       195.635,            0.,NA,NA,"",   9.80886E+06,  -5.36074E+06,  -5.36074E+06
C:/temp/Job-7.odb,Step-1,Increment      1: Step Time =    1.000,"P-7-1",           567,       129.679,       195.344,            0.,NA,NA,"",   7.23917E+06,  -6.38509E+06,  -6.38509E+06
C:/temp/Job-7.odb,Step-1,Increment      1: Step Time =    1.000,"P-7-1",           568,       140.682,       195.246,            0.,NA,NA,"",   6.67911E+06,  -5.47835E+06,  -5.47835E+06
C:/temp/Job-7.odb,Step-1,Increment      1: Step Time =    1.000,"P-7-1",           569,       150.238,       195.583,            0.,NA,NA,"",   5.58492E+06,  -5.37739E+06,  -5.37739E+06
C:/temp/Job-7.odb,Step-1,Increment      1: Step Time =    1.000,"P-7-1",           570,       160.103,       195.001,            0.,NA,NA,"",   3.78041E+06,  -3.54726E+06,  -3.54726E+06
C:/temp/Job-7.odb,Step-1,Increment      1: Step Time =    1.000,"P-7-1",           571,       170.082,       195.023,            0.,NA,NA,"",   2.42593E+06,  -2.15378E+06,  -2.15378E+06
C:/temp/Job-7.odb,Step-1,Increment      1: Step Time =    1.000,"P-7-1",           572,       180.001,       194.922,            0.,NA,NA,"",   1.40559E+06,  -1.04381E+06,  -1.04381E+06
C:/temp/Job-7.odb,Step-1,Increment      1: Step Time =    1.000,"P-7-1",           573,       189.923,       194.871,            0.,NA,NA,"",   1.02946E+06,   764.026E+03,   764.026E+03
C:/temp/Job-7.odb,Step-1,Increment      1: Step Time =    1.000,"P-7-1",           574,       4.98764,       9.93381,            0.,NA,NA,"",   7.46546E+06,   7.98375E+06,   7.98375E+06
C:/temp/Job-7.odb,Step-1,Increment      1: Step Time =    1.000,"P-7-1",           575,       5.00659,       19.8439,            0.,NA,NA,"",   3.42565E+06,   3.79067E+06,   3.79067E+06
C:/temp/Job-7.odb,Step-1,Increment      1: Step Time =    1.000,"P-7-1",           576,       9.68544,       29.6229,            0.,NA,NA,"",   1.11047E+06,   66.2532E+03,   66.2532E+03
C:/temp/Job-7.odb,Step-1,Increment      1: Step Time =    1.000,"P-7-1",           577,       4.78344,       39.7192,            0.,NA,NA,"",   2.04087E+06,  -1.95175E+06,  -1.95175E+06
C:/temp/Job-7.odb,Step-1,Increment      1: Step Time =    1.000,"P-7-1",           578,       5.04792,       49.7349,            0.,NA,NA,"",   2.75718E+06,  -2.74096E+06,  -2.74096E+06
C:/temp/Job-7.odb,Step-1,Increment      1: Step Time =    1.000,"P-7-1",           579,       4.23124,       59.5452,            0.,NA,NA,"",   2.44943E+06,  -2.42413E+06,  -2.42413E+06
C:/temp/Job-7.odb,Step-1,Increment      1: Step Time =    1.000,"P-7-1",           580,       4.94673,       69.0965,            0.,NA,NA,"",   1.70422E+06,  -1.65803E+06,  -1.65803E+06
C:/temp/Job-7.odb,Step-1,Increment      1: Step Time =    1.000,"P-7-1",           581,       4.90617,       80.8779,            0.,NA,NA,"",   872.988E+03,  -839.519E+03,  -839.519E+03
C:/temp/Job-7.odb,Step-1,Increment      1: Step Time =    1.000,"P-7-1",           582,       3.95446,       91.0160,            0.,NA,NA,"",   409.066E+03,  -412.590E+03,  -412.590E+03
C:/temp/Job-7.odb,Step-1,Increment      1: Step Time =    1.000,"P-7-1",           583,       3.30893,       99.7444,            0.,NA,NA,"",   209.124E+03,  -238.259E+03,  -238.259E+03
C:/temp/Job-7.odb,Step-1,Increment      1: Step Time =    1.000,"P-7-1",           584,       4.65078,       119.901,            0.,NA,NA,"",   920.825E+03,  -884.618E+03,  -884.618E+03
C:/temp/Job-7.odb,Step-1,Increment      1: Step Time =    1.000,"P-7-1",           585,       3.96958,       129.804,            0.,NA,NA,"",   1.61133E+06,  -1.55362E+06,  -1.55362E+06
C:/temp/Job-7.odb,Step-1,Increment      1: Step Time =    1.000,"P-7-1",           586,       4.14706,       139.501,            0.,NA,NA,"",   2.36840E+06,  -2.34069E+06,  -2.34069E+06
C:/temp/Job-7.odb,Step-1,Increment      1: Step Time =    1.000,"P-7-1",           587,       4.90594,       150.049,            0.,NA,NA,"",   2.72440E+06,  -2.71617E+06,  -2.71617E+06
C:/temp/Job-7.odb,Step-1,Increment      1: Step Time =    1.000,"P-7-1",           588,       4.09562,       160.297,            0.,NA,NA,"",   1.96458E+06,  -1.89982E+06,  -1.89982E+06
C:/temp/Job-7.odb,Step-1,Increment      1: Step Time =    1.000,"P-7-1",           589,       4.25921,       170.056,            0.,NA,NA,"",   860.340E+03,   578.261E+03,   578.261E+03
C:/temp/Job-7.odb,Step-1,Increment      1: Step Time =    1.000,"P-7-1",           590,       4.89262,       179.821,            0.,NA,NA,"",   3.28122E+06,   3.63627E+06,   3.63627E+06
C:/temp/Job-7.odb,Step-1,Increment      1: Step Time =    1.000,"P-7-1",           591,       4.99869,       189.963,            0.,NA,NA,"",   7.43838E+06,   7.95983E+06,   7.95983E+06
C:/temp/Job-7.odb,Step-1,Increment      1: Step Time =    1.000,"P-7-1",           592,       188.373,       72.8462,            0.,NA,NA,"",   5.19334E+06,  -870.076E+03,  -870.076E+03
C:/temp/Job-7.odb,Step-1,Increment      1: Step Time =    1.000,"P-7-1",           593,       192.268,       71.5035,            0.,NA,NA,"",   6.01918E+06,   5.02915E+06,   5.02915E+06
C:/temp/Job-7.odb,Step-1,Increment      1: Step Time =    1.000,"P-7-1",           594,       9.50274,       68.0283,            0.,NA,NA,"",   1.72692E+06,  -1.73704E+06,  -1.73704E+06
C:/temp/Job-7.odb,Step-1,Increment      1: Step Time =    1.000,"P-7-1",           595,       183.239,       51.8746,            0.,NA,NA,"",   4.02933E+06,   3.76192E+06,   3.76192E+06
C:/temp/Job-7.odb,Step-1,Increment      1: Step Time =    1.000,"P-7-1",           596,       15.6132,       52.3316,            0.,NA,NA,"",   3.53821E+06,  -3.51581E+06,  -3.51581E+06
C:/temp/Job-7.odb,Step-1,Increment      1: Step Time =    1.000,"P-7-1",           597,       170.461,       34.5776,            0.,NA,NA,"",   5.35864E+06,   5.59487E+06,   5.59487E+06
C:/temp/Job-7.odb,Step-1,Increment      1: Step Time =    1.000,"P-7-1",           598,       28.6217,       35.8889,            0.,NA,NA,"",   5.54699E+06,  -5.59428E+06,  -5.59428E+06
C:/temp/Job-7.odb,Step-1,Increment      1: Step Time =    1.000,"P-7-1",           599,       185.961,       142.222,            0.,NA,NA,"",   4.16417E+06,   3.56544E+06,   3.56544E+06
C:/temp/Job-7.odb,Step-1,Increment      1: Step Time =    1.000,"P-7-1",           600,       187.499,       60.7262,            0.,NA,NA,"",   4.26748E+06,   3.49746E+06,   3.49746E+06
C:/temp/Job-7.odb,Step-1,Increment      1: Step Time =    1.000,"P-7-1",           601,       13.2249,       57.0194,            0.,NA,NA,"",    2.9143E+06,  -2.91543E+06,  -2.91543E+06
C:/temp/Job-7.odb,Step-1,Increment      1: Step Time =    1.000,"P-7-1",           602,       35.4905,       172.061,            0.,NA,NA,"",   4.86742E+06,  -5.04748E+06,  -5.04748E+06
C:/temp/Job-7.odb,Step-1,Increment      1: Step Time =    1.000,"P-7-1",           603,       47.4385,       181.143,            0.,NA,NA,"",   3.72864E+06,  -3.79352E+06,  -3.79352E+06
C:/temp/Job-7.odb,Step-1,Increment      1: Step Time =    1.000,"P-7-1",           604,       132.370,       189.464,            0.,NA,NA,"",   10.5392E+06,   10.7576E+06,   10.7576E+06
C:/temp/Job-7.odb,Step-1,Increment      1: Step Time =    1.000,"P-7-1",           605,       64.4972,       190.290,            0.,NA,NA,"",   7.01719E+06,   4.89808E+06,   4.89808E+06
C:/temp/Job-7.odb,Step-1,Increment      1: Step Time =    1.000,"P-7-1",           606,       179.437,       148.703,            0.,NA,NA,"",   4.38287E+06,   4.33637E+06,   4.33637E+06
C:/temp/Job-7.odb,Step-1,Increment      1: Step Time =    1.000,"P-7-1",           607,       67.8816,       186.843,            0.,NA,NA,"",   6.95202E+06,  -4.82193E+06,  -4.82193E+06
C:/temp/Job-7.odb,Step-1,Increment      1: Step Time =    1.000,"P-7-1",           608,       57.6100,       17.9166,            0.,NA,NA,"",   8.61789E+06,  -8.66713E+06,  -8.66713E+06
C:/temp/Job-7.odb,Step-1,Increment      1: Step Time =    1.000,"P-7-1",           609,       151.994,       24.1485,            0.,NA,NA,"",   11.6335E+06,   11.8409E+06,   11.8409E+06
C:/temp/Job-7.odb,Step-1,Increment      1: Step Time =    1.000,"P-7-1",           610,       10.6203,       77.5710,            0.,NA,NA,"",   1.03956E+06,  -1.04626E+06,  -1.04626E+06
C:/temp/Job-7.odb,Step-1,Increment      1: Step Time =    1.000,"P-7-1",           611,       99.9754,       196.632,            0.,NA,NA,"",   7.46879E+06,   1.02898E+06,   1.02898E+06
C:/temp/Job-7.odb,Step-1,Increment      1: Step Time =    1.000,"P-7-1",           612,       133.032,       9.26319,            0.,NA,NA,"",   7.87814E+06,   7.96899E+06,   7.96899E+06
C:/temp/Job-7.odb,Step-1,Increment      1: Step Time =    1.000,"P-7-1",           613,       70.9225,       9.58477,            0.,NA,NA,"",   6.60013E+06,   3.32134E+06,   3.32134E+06
C:/temp/Job-7.odb,Step-1,Increment      1: Step Time =    1.000,"P-7-1",           614,       63.7348,       7.20062,            0.,NA,NA,"",   10.9599E+06,   10.6235E+06,   10.6235E+06
C:/temp/Job-7.odb,Step-1,Increment      1: Step Time =    1.000,"P-7-1",           615,       193.261,       138.661,            0.,NA,NA,"",   4.61858E+06,   4.21867E+06,   4.21867E+06
C:/temp/Job-7.odb,Step-1,Increment      1: Step Time =    1.000,"P-7-1",           616,       59.2123,       191.358,            0.,NA,NA,"",   8.76397E+06,   8.34541E+06,   8.34541E+06
C:/temp/Job-7.odb,Step-1,Increment      1: Step Time =    1.000,"P-7-1",           617,       142.318,       191.223,            0.,NA,NA,"",   4.28051E+06,   1.87590E+06,   1.87590E+06
C:/temp/Job-7.odb,Step-1,Increment      1: Step Time =    1.000,"P-7-1",           618,       144.178,       7.45984,            0.,NA,NA,"",   3.27636E+06,  -1.11467E+06,  -1.11467E+06
C:/temp/Job-7.odb,Step-1,Increment      1: Step Time =    1.000,"P-7-1",           619,       192.764,       130.079,            0.,NA,NA,"",   5.78359E+06,   5.10423E+06,   5.10423E+06
C:/temp/Job-7.odb,Step-1,Increment      1: Step Time =    1.000,"P-7-1",           620,       192.566,       61.1182,            0.,NA,NA,"",   4.46326E+06,   4.01665E+06,   4.01665E+06
C:/temp/Job-7.odb,Step-1,Increment      1: Step Time =    1.000,"P-7-1",           621,       7.81491,       59.1445,            0.,NA,NA,"",   2.50657E+06,  -2.50208E+06,  -2.50208E+06
C:/temp/Job-7.odb,Step-1,Increment      1: Step Time =    1.000,"P-7-1",           622,       7.27690,       129.928,            0.,NA,NA,"",   1.54913E+06,  -1.54415E+06,  -1.54415E+06
C:/temp/Job-7.odb,Step-1,Increment      1: Step Time =    1.000,"P-7-1",           623,       7.87147,       138.936,            0.,NA,NA,"",   2.32981E+06,  -2.32602E+06,  -2.32602E+06
C:/temp/Job-7.odb,Step-1,Increment      1: Step Time =    1.000,"P-7-1",           624,       51.3746,       185.041,            0.,NA,NA,"",   4.22616E+06,  -203.338E+03,  -203.338E+03
C:/temp/Job-7.odb,Step-1,Increment      1: Step Time =    1.000,"P-7-1",           625,       147.310,       183.521,            0.,NA,NA,"",   9.51183E+06,   9.73236E+06,   9.73236E+06
C:/temp/Job-7.odb,Step-1,Increment      1: Step Time =    1.000,"P-7-1",           626,       174.260,       38.0003,            0.,NA,NA,"",   4.67546E+06,   4.86210E+06,   4.86210E+06
C:/temp/Job-7.odb,Step-1,Increment      1: Step Time =    1.000,"P-7-1",           627,       163.355,       27.2980,            0.,NA,NA,"",   6.46004E+06,   6.73306E+06,   6.73306E+06
C:/temp/Job-7.odb,Step-1,Increment      1: Step Time =    1.000,"P-7-1",           628,       35.8709,       23.9745,            0.,NA,NA,"",   2.52721E+06,  -2.67485E+06,  -2.67485E+06
C:/temp/Job-7.odb,Step-1,Increment      1: Step Time =    1.000,"P-7-1",           629,       27.2255,       163.376,            0.,NA,NA,"",   5.24734E+06,  -5.29109E+06,  -5.29109E+06
C:/temp/Job-7.odb,Step-1,Increment      1: Step Time =    1.000,"P-7-1",           630,       25.1821,       39.4061,            0.,NA,NA,"",   5.17117E+06,  -5.16556E+06,  -5.16556E+06
C:/temp/Job-7.odb,Step-1,Increment      1: Step Time =    1.000,"P-7-1",           631,       39.8434,       174.935,            0.,NA,NA,"",   5.04372E+06,  -5.24306E+06,  -5.24306E+06
C:/temp/Job-7.odb,Step-1,Increment      1: Step Time =    1.000,"P-7-1",           632,       11.0940,       137.704,            0.,NA,NA,"",   2.26571E+06,  -2.28085E+06,  -2.28085E+06
C:/temp/Job-7.odb,Step-1,Increment      1: Step Time =    1.000,"P-7-1",           633,       164.546,       171.356,            0.,NA,NA,"",   6.29453E+06,   6.56164E+06,   6.56164E+06
C:/temp/Job-7.odb,Step-1,Increment      1: Step Time =    1.000,"P-7-1",           634,       56.7303,       186.677,            0.,NA,NA,"",   4.49455E+06,   172.931E+03,   172.931E+03
C:/temp/Job-7.odb,Step-1,Increment      1: Step Time =    1.000,"P-7-1",           635,       142.935,       185.826,            0.,NA,NA,"",   9.67607E+06,   9.92494E+06,   9.92494E+06
C:/temp/Job-7.odb,Step-1,Increment      1: Step Time =    1.000,"P-7-1",           636,       171.811,       164.524,            0.,NA,NA,"",   5.03024E+06,   5.26208E+06,   5.26208E+06
C:/temp/Job-7.odb,Step-1,Increment      1: Step Time =    1.000,"P-7-1",           637,       46.2914,       17.1667,            0.,NA,NA,"",   3.88534E+06,  -733.156E+03,  -733.156E+03
C:/temp/Job-7.odb,Step-1,Increment      1: Step Time =    1.000,"P-7-1",           638,       160.771,       175.104,            0.,NA,NA,"",   6.83821E+06,   7.09234E+06,   7.09234E+06
C:/temp/Job-7.odb,Step-1,Increment      1: Step Time =    1.000,"P-7-1",           639,       95.8900,       196.752,            0.,NA,NA,"",   6.98659E+06,   4.30990E+06,   4.30990E+06
C:/temp/Job-7.odb,Step-1,Increment      1: Step Time =    1.000,"P-7-1",           640,       181.336,       47.0328,            0.,NA,NA,"",   4.02224E+06,   3.92008E+06,   3.92008E+06
C:/temp/Job-7.odb,Step-1,Increment      1: Step Time =    1.000,"P-7-1",           641,       8.11757,       165.373,            0.,NA,NA,"",   1.71036E+06,  -1.02949E+06,  -1.02949E+06
C:/temp/Job-7.odb,Step-1,Increment      1: Step Time =    1.000,"P-7-1",           642,       163.968,       13.2970,            0.,NA,NA,"",   2.80176E+06,   2.43156E+06,   2.43156E+06
C:/temp/Job-7.odb,Step-1,Increment      1: Step Time =    1.000,"P-7-1",           643,       14.4138,       34.3157,            0.,NA,NA,"",   2.30316E+06,  -1.89805E+06,  -1.89805E+06
C:/temp/Job-7.odb,Step-1,Increment      1: Step Time =    1.000,"P-7-1",           644,       34.4634,       8.78981,            0.,NA,NA,"",   10.1302E+06,   10.0622E+06,   10.0622E+06
C:/temp/Job-7.odb,Step-1,Increment      1: Step Time =    1.000,"P-7-1",           645,       186.604,       165.459,            0.,NA,NA,"",   2.29825E+06,   2.13165E+06,   2.13165E+06
C:/temp/Job-7.odb,Step-1,Increment      1: Step Time =    1.000,"P-7-1",           646,       165.165,       189.905,            0.,NA,NA,"",   2.40461E+06,   126.287E+03,   126.287E+03
C:/temp/Job-7.odb,Step-1,Increment      1: Step Time =    1.000,"P-7-1",           647,       189.863,       35.1985,            0.,NA,NA,"",   2.20479E+06,   1.72302E+06,   1.72302E+06
C:/temp/Job-7.odb,Step-1,Increment      1: Step Time =    1.000,"P-7-1",           648,       34.5606,       189.711,            0.,NA,NA,"",   8.70485E+06,   8.64134E+06,   8.64134E+06
C:/temp/Job-7.odb,Step-1,Increment      1: Step Time =    1.000,"P-7-1",           649,       61.1514,       12.0089,            0.,NA,NA,"",   5.08234E+06,   620.016E+03,   620.016E+03
C:/temp/Job-7.odb,Step-1,Increment      1: Step Time =    1.000,"P-7-1",           650,       150.548,       18.5429,            0.,NA,NA,"",   9.06502E+06,   9.32986E+06,   9.32986E+06
C:/temp/Job-7.odb,Step-1,Increment      1: Step Time =    1.000,"P-7-1",           651,       173.352,       31.6973,            0.,NA,NA,"",   4.08364E+06,   4.33335E+06,   4.33335E+06
C:/temp/Job-7.odb,Step-1,Increment      1: Step Time =    1.000,"P-7-1",           652,       27.5844,       30.4305,            0.,NA,NA,"",   3.23821E+06,  -3.24467E+06,  -3.24467E+06
C:/temp/Job-7.odb,Step-1,Increment      1: Step Time =    1.000,"P-7-1",           653,       51.2519,       15.3238,            0.,NA,NA,"",   4.44490E+06,  -538.474E+03,  -538.474E+03
C:/temp/Job-7.odb,Step-1,Increment      1: Step Time =    1.000,"P-7-1",           654,       11.8974,       165.111,            0.,NA,NA,"",   2.18740E+06,  -1.77398E+06,  -1.77398E+06
C:/temp/Job-7.odb,Step-1,Increment      1: Step Time =    1.000,"P-7-1",           655,       163.907,       17.4970,            0.,NA,NA,"",   3.79656E+06,   3.80920E+06,   3.80920E+06
C:/temp/Job-7.odb,Step-1,Increment      1: Step Time =    1.000,"P-7-1",           656,       19.4627,       34.1274,            0.,NA,NA,"",   2.87757E+06,  -2.60236E+06,  -2.60236E+06
C:/temp/Job-7.odb,Step-1,Increment      1: Step Time =    1.000,"P-7-1",           657,       34.6392,       12.5774,            0.,NA,NA,"",   6.80846E+06,   6.66459E+06,   6.66459E+06
C:/temp/Job-7.odb,Step-1,Increment      1: Step Time =    1.000,"P-7-1",           658,       183.644,       165.774,            0.,NA,NA,"",   2.55345E+06,   2.57021E+06,   2.57021E+06
C:/temp/Job-7.odb,Step-1,Increment      1: Step Time =    1.000,"P-7-1",           659,       165.669,       184.993,            0.,NA,NA,"",   2.86425E+06,   2.65105E+06,   2.65105E+06
C:/temp/Job-7.odb,Step-1,Increment      1: Step Time =    1.000,"P-7-1",           660,       184.800,       35.5092,            0.,NA,NA,"",   2.53582E+06,   2.45878E+06,   2.45878E+06
C:/temp/Job-7.odb,Step-1,Increment      1: Step Time =    1.000,"P-7-1",           661,       33.6215,       185.055,            0.,NA,NA,"",   5.04718E+06,   4.92696E+06,   4.92696E+06
C:/temp/Job-7.odb,Step-1,Increment      1: Step Time =    1.000,"P-7-1",           662,       183.314,       145.873,            0.,NA,NA,"",   4.05850E+06,   3.76165E+06,   3.76165E+06
C:/temp/Job-7.odb,Step-1,Increment      1: Step Time =    1.000,"P-7-1",           663,       12.8327,       142.300,            0.,NA,NA,"",   2.79558E+06,  -2.79837E+06,  -2.79837E+06
C:/temp/Job-7.odb,Step-1,Increment      1: Step Time =    1.000,"P-7-1",           664,       29.4906,       175.026,            0.,NA,NA,"",   1.57603E+06,  -1.22236E+06,  -1.22236E+06
C:/temp/Job-7.odb,Step-1,Increment      1: Step Time =    1.000,"P-7-1",           665,       171.003,       170.996,            0.,NA,NA,"",    4.3052E+06,   4.57642E+06,   4.57642E+06
C:/temp/Job-7.odb,Step-1,Increment      1: Step Time =    1.000,"P-7-1",           666,       164.005,       178.236,            0.,NA,NA,"",   4.73867E+06,   4.93294E+06,   4.93294E+06
C:/temp/Job-7.odb,Step-1,Increment      1: Step Time =    1.000,"P-7-1",           667,       37.7626,       178.220,            0.,NA,NA,"",   1.94868E+06,  -1.95081E+06,  -1.95081E+06
C:/temp/Job-7.odb,Step-1,Increment      1: Step Time =    1.000,"P-7-1",           668,       55.4573,       190.993,            0.,NA,NA,"",   8.77542E+06,   8.40335E+06,   8.40335E+06
C:/temp/Job-7.odb,Step-1,Increment      1: Step Time =    1.000,"P-7-1",           669,       34.0058,       28.1010,            0.,NA,NA,"",   4.42404E+06,  -4.56610E+06,  -4.56610E+06
C:/temp/Job-7.odb,Step-1,Increment      1: Step Time =    1.000,"P-7-1",           670,       151.963,       181.378,            0.,NA,NA,"",   8.41322E+06,   8.61460E+06,   8.61460E+06
C:/temp/Job-7.odb,Step-1,Increment      1: Step Time =    1.000,"P-7-1",           671,       33.8383,       176.224,            0.,NA,NA,"",   1.82153E+06,  -1.90041E+06,  -1.90041E+06
C:/temp/Job-7.odb,Step-1,Increment      1: Step Time =    1.000,"P-7-1",           672,       167.615,       174.351,            0.,NA,NA,"",   4.64861E+06,   4.90914E+06,   4.90914E+06
C:/temp/Job-7.odb,Step-1,Increment      1: Step Time =    1.000,"P-7-1",           673,       39.9878,       14.8095,            0.,NA,NA,"",   4.26981E+06,   4.01724E+06,   4.01724E+06
C:/temp/Job-7.odb,Step-1,Increment      1: Step Time =    1.000,"P-7-1",           674,       149.144,       187.195,            0.,NA,NA,"",   5.22433E+06,   5.15773E+06,   5.15773E+06
C:/temp/Job-7.odb,Step-1,Increment      1: Step Time =    1.000,"P-7-1",           675,       46.9346,       186.614,            0.,NA,NA,"",   4.39073E+06,   3.44888E+06,   3.44888E+06
C:/temp/Job-7.odb,Step-1,Increment      1: Step Time =    1.000,"P-7-1",           676,       29.2623,       26.6507,            0.,NA,NA,"",   1.84434E+06,  -1.88839E+06,  -1.88839E+06
C:/temp/Job-7.odb,Step-1,Increment      1: Step Time =    1.000,"P-7-1",           677,       186.432,       149.035,            0.,NA,NA,"",   3.83383E+06,   3.44009E+06,   3.44009E+06
C:/temp/Job-7.odb,Step-1,Increment      1: Step Time =    1.000,"P-7-1",           678,       14.9748,       147.286,            0.,NA,NA,"",   3.40839E+06,  -3.37983E+06,  -3.37983E+06
C:/temp/Job-7.odb,Step-1,Increment      1: Step Time =    1.000,"P-7-1",           679,       143.572,       18.8810,            0.,NA,NA,"",   15.0463E+06,   15.2824E+06,   15.2824E+06
C:/temp/Job-7.odb,Step-1,Increment      1: Step Time =    1.000,"P-7-1",           680,       173.248,       25.9159,            0.,NA,NA,"",   3.40235E+06,   3.58090E+06,   3.58090E+06
C:/temp/Job-7.odb,Step-1,Increment      1: Step Time =    1.000,"P-7-1",           681,       13.5778,       169.616,            0.,NA,NA,"",   1.39785E+06,  -480.582E+03,  -480.582E+03
C:/temp/Job-7.odb,Step-1,Increment      1: Step Time =    1.000,"P-7-1",           682,       168.446,       18.4172,            0.,NA,NA,"",   3.16991E+06,   3.15404E+06,   3.15404E+06
C:/temp/Job-7.odb,Step-1,Increment      1: Step Time =    1.000,"P-7-1",           683,       19.1880,       29.4219,            0.,NA,NA,"",   1.45505E+06,  -837.328E+03,  -837.328E+03
C:/temp/Job-7.odb,Step-1,Increment      1: Step Time =    1.000,"P-7-1",           684,       30.0437,       13.7412,            0.,NA,NA,"",   5.97187E+06,   5.88232E+06,   5.88232E+06
C:/temp/Job-7.odb,Step-1,Increment      1: Step Time =    1.000,"P-7-1",           685,       182.342,       168.687,            0.,NA,NA,"",   2.48986E+06,   2.52188E+06,   2.52188E+06
C:/temp/Job-7.odb,Step-1,Increment      1: Step Time =    1.000,"P-7-1",           686,       170.351,       185.709,            0.,NA,NA,"",   2.45608E+06,   2.08830E+06,   2.08830E+06
C:/temp/Job-7.odb,Step-1,Increment      1: Step Time =    1.000,"P-7-1",           687,       183.975,       29.6769,            0.,NA,NA,"",   2.30884E+06,   2.21162E+06,   2.21162E+06
C:/temp/Job-7.odb,Step-1,Increment      1: Step Time =    1.000,"P-7-1",           688,       29.1825,       185.125,            0.,NA,NA,"",   5.49397E+06,   5.46781E+06,   5.46781E+06
C:/temp/Job-7.odb,Step-1,Increment      1: Step Time =    1.000,"P-7-1",           689,       174.253,       168.019,            0.,NA,NA,"",   3.87935E+06,   4.12183E+06,   4.12183E+06
C:/temp/Job-7.odb,Step-1,Increment      1: Step Time =    1.000,"P-7-1",           690,       24.6367,       169.653,            0.,NA,NA,"",   2.48095E+06,  -2.37224E+06,  -2.37224E+06
C:/temp/Job-7.odb,Step-1,Increment      1: Step Time =    1.000,"P-7-1",           691,       160.046,       183.459,            0.,NA,NA,"",   4.20921E+06,   4.20659E+06,   4.20659E+06
C:/temp/Job-7.odb,Step-1,Increment      1: Step Time =    1.000,"P-7-1",           692,       45.9618,       190.300,            0.,NA,NA,"",   8.64867E+06,   8.40226E+06,   8.40226E+06
C:/temp/Job-7.odb,Step-1,Increment      1: Step Time =    1.000,"P-7-1",           693,       35.9382,       16.0078,            0.,NA,NA,"",   3.58809E+06,   3.33570E+06,   3.33570E+06
C:/temp/Job-7.odb,Step-1,Increment      1: Step Time =    1.000,"P-7-1",           694,       150.103,       191.225,            0.,NA,NA,"",   3.45838E+06,  -102.191E+03,  -102.191E+03
C:/temp/Job-7.odb,Step-1,Increment      1: Step Time =    1.000,"P-7-1",           695,       44.0094,       184.317,            0.,NA,NA,"",   3.24318E+06,   1.60353E+06,   1.60353E+06
C:/temp/Job-7.odb,Step-1,Increment      1: Step Time =    1.000,"P-7-1",           696,       154.019,       185.560,            0.,NA,NA,"",   4.80963E+06,   4.77955E+06,   4.77955E+06
C:/temp/Job-7.odb,Step-1,Increment      1: Step Time =    1.000,"P-7-1",           697,       189.476,       152.331,            0.,NA,NA,"",   3.14564E+06,   2.71327E+06,   2.71327E+06
C:/temp/Job-7.odb,Step-1,Increment      1: Step Time =    1.000,"P-7-1",           698,       186.095,       155.489,            0.,NA,NA,"",   3.27438E+06,   3.01167E+06,   3.01167E+06
C:/temp/Job-7.odb,Step-1,Increment      1: Step Time =    1.000,"P-7-1",           699,       24.5145,       25.5209,            0.,NA,NA,"",   918.171E+03,  -330.038E+03,  -330.038E+03
C:/temp/Job-7.odb,Step-1,Increment      1: Step Time =    1.000,"P-7-1",           700,       10.4060,       150.276,            0.,NA,NA,"",   3.17236E+06,  -3.08241E+06,  -3.08241E+06
C:/temp/Job-7.odb,Step-1,Increment      1: Step Time =    1.000,"P-7-1",           701,       176.049,       23.2106,            0.,NA,NA,"",   2.78541E+06,   2.80226E+06,   2.80226E+06
C:/temp/Job-7.odb,Step-1,Increment      1: Step Time =    1.000,"P-7-1",           702,       12.5720,       174.926,            0.,NA,NA,"",   1.32906E+06,   1.51966E+06,   1.51966E+06
C:/temp/Job-7.odb,Step-1,Increment      1: Step Time =    1.000,"P-7-1",           703,       174.228,       14.1455,            0.,NA,NA,"",   2.35910E+06,   1.91121E+06,   1.91121E+06
C:/temp/Job-7.odb,Step-1,Increment      1: Step Time =    1.000,"P-7-1",           704,       18.0669,       165.513,            0.,NA,NA,"",   2.69305E+06,  -2.38163E+06,  -2.38163E+06
C:/temp/Job-7.odb,Step-1,Increment      1: Step Time =    1.000,"P-7-1",           705,       164.644,       21.1258,            0.,NA,NA,"",   4.51089E+06,   4.68462E+06,   4.68462E+06
C:/temp/Job-7.odb,Step-1,Increment      1: Step Time =    1.000,"P-7-1",           706,       22.9061,       32.4270,            0.,NA,NA,"",   2.91572E+06,  -2.75470E+06,  -2.75470E+06
C:/temp/Job-7.odb,Step-1,Increment      1: Step Time =    1.000,"P-7-1",           707,       32.6531,       16.4905,            0.,NA,NA,"",   3.68434E+06,   3.50986E+06,   3.50986E+06
C:/temp/Job-7.odb,Step-1,Increment      1: Step Time =    1.000,"P-7-1",           708,       24.9562,       13.4032,            0.,NA,NA,"",   6.46707E+06,   6.48631E+06,   6.48631E+06
C:/temp/Job-7.odb,Step-1,Increment      1: Step Time =    1.000,"P-7-1",           709,       14.9732,       24.7092,            0.,NA,NA,"",   1.43510E+06,   1.60289E+06,   1.60289E+06
C:/temp/Job-7.odb,Step-1,Increment      1: Step Time =    1.000,"P-7-1",           710,       174.904,       185.185,            0.,NA,NA,"",   2.35983E+06,   1.91828E+06,   1.91828E+06
C:/temp/Job-7.odb,Step-1,Increment      1: Step Time =    1.000,"P-7-1",           711,       185.693,       174.158,            0.,NA,NA,"",   2.18663E+06,   1.88403E+06,   1.88403E+06
C:/temp/Job-7.odb,Step-1,Increment      1: Step Time =    1.000,"P-7-1",           712,       181.822,       163.001,            0.,NA,NA,"",   2.96580E+06,   3.03182E+06,   3.03182E+06
C:/temp/Job-7.odb,Step-1,Increment      1: Step Time =    1.000,"P-7-1",           713,       167.683,       180.577,            0.,NA,NA,"",   3.44108E+06,   3.46469E+06,   3.46469E+06
C:/temp/Job-7.odb,Step-1,Increment      1: Step Time =    1.000,"P-7-1",           714,       186.030,       24.4949,            0.,NA,NA,"",   2.17257E+06,   1.81431E+06,   1.81431E+06
C:/temp/Job-7.odb,Step-1,Increment      1: Step Time =    1.000,"P-7-1",           715,       24.5158,       184.790,            0.,NA,NA,"",   5.47114E+06,   5.51329E+06,   5.51329E+06
C:/temp/Job-7.odb,Step-1,Increment      1: Step Time =    1.000,"P-7-1",           716,       174.341,       174.208,            0.,NA,NA,"",   3.22507E+06,   3.38390E+06,   3.38390E+06
C:/temp/Job-7.odb,Step-1,Increment      1: Step Time =    1.000,"P-7-1",           717,       25.2292,       174.883,            0.,NA,NA,"",   1.25992E+06,  -322.744E+03,  -322.744E+03
C:/temp/Job-7.odb,Step-1,Increment      1: Step Time =    1.000,"P-7-1",           718,       36.3923,       19.8267,            0.,NA,NA,"",   1.76931E+06,   96.2900E+03,   96.2900E+03
C:/temp/Job-7.odb,Step-1,Increment      1: Step Time =    1.000,"P-7-1",           719,       22.8690,       164.332,            0.,NA,NA,"",   3.82360E+06,  -3.71560E+06,  -3.71560E+06
C:/temp/Job-7.odb,Step-1,Increment      1: Step Time =    1.000,"P-7-1",           720,       167.030,       24.8375,            0.,NA,NA,"",   4.68546E+06,   4.91476E+06,   4.91476E+06
C:/temp/Job-7.odb,Step-1,Increment      1: Step Time =    1.000,"P-7-1",           721,       178.276,       166.048,            0.,NA,NA,"",   3.24459E+06,   3.40239E+06,   3.40239E+06
C:/temp/Job-7.odb,Step-1,Increment      1: Step Time =    1.000,"P-7-1",           722,       25.7678,       21.1429,            0.,NA,NA,"",   1.74210E+06,   1.72092E+06,   1.72092E+06
C:/temp/Job-7.odb,Step-1,Increment      1: Step Time =    1.000,"P-7-1",           723,       14.7217,       154.757,            0.,NA,NA,"",   3.67953E+06,  -3.50342E+06,  -3.50342E+06
C:/temp/Job-7.odb,Step-1,Increment      1: Step Time =    1.000,"P-7-1",           724,       173.263,       21.2861,            0.,NA,NA,"",   2.85745E+06,   2.88815E+06,   2.88815E+06
C:/temp/Job-7.odb,Step-1,Increment      1: Step Time =    1.000,"P-7-1",           725,       174.652,       9.56471,            0.,NA,NA,"",   2.04374E+06,   118.118E+03,   118.118E+03
C:/temp/Job-7.odb,Step-1,Increment      1: Step Time =    1.000,"P-7-1",           726,       17.1306,       172.072,            0.,NA,NA,"",   986.616E+03,   60.0291E+03,   60.0291E+03
C:/temp/Job-7.odb,Step-1,Increment      1: Step Time =    1.000,"P-7-1",           727,       173.532,       18.2182,            0.,NA,NA,"",   2.61357E+06,   2.47468E+06,   2.47468E+06
C:/temp/Job-7.odb,Step-1,Increment      1: Step Time =    1.000,"P-7-1",           728,       17.3924,       159.473,            0.,NA,NA,"",   3.65602E+06,  -3.42396E+06,  -3.42396E+06
C:/temp/Job-7.odb,Step-1,Increment      1: Step Time =    1.000,"P-7-1",           729,       159.473,       17.9549,            0.,NA,NA,"",   4.93646E+06,   5.03284E+06,   5.03284E+06
C:/temp/Job-7.odb,Step-1,Increment      1: Step Time =    1.000,"P-7-1",           730,       19.2212,       38.5003,            0.,NA,NA,"",   3.68756E+06,  -3.48394E+06,  -3.48394E+06
C:/temp/Job-7.odb,Step-1,Increment      1: Step Time =    1.000,"P-7-1",           731,       9.95028,       24.6421,            0.,NA,NA,"",   1.61189E+06,   1.83118E+06,   1.83118E+06
C:/temp/Job-7.odb,Step-1,Increment      1: Step Time =    1.000,"P-7-1",           732,       19.7403,       25.1089,            0.,NA,NA,"",   1.10844E+06,   847.382E+03,   847.382E+03
C:/temp/Job-7.odb,Step-1,Increment      1: Step Time =    1.000,"P-7-1",           733,       28.2754,       17.8220,            0.,NA,NA,"",   3.34843E+06,   3.29927E+06,   3.29927E+06
C:/temp/Job-7.odb,Step-1,Increment      1: Step Time =    1.000,"P-7-1",           734,       190.492,       174.685,            0.,NA,NA,"",   2.20471E+06,   817.458E+03,   817.458E+03
C:/temp/Job-7.odb,Step-1,Increment      1: Step Time =    1.000,"P-7-1",           735,       180.937,       172.909,            0.,NA,NA,"",   2.46076E+06,   2.45867E+06,   2.45867E+06
C:/temp/Job-7.odb,Step-1,Increment      1: Step Time =    1.000,"P-7-1",           736,       185.019,       40.7363,            0.,NA,NA,"",   2.96295E+06,   2.81484E+06,   2.81484E+06
C:/temp/Job-7.odb,Step-1,Increment      1: Step Time =    1.000,"P-7-1",           737,       24.5411,       189.861,            0.,NA,NA,"",   8.57636E+06,   8.59232E+06,   8.59232E+06
C:/temp/Job-7.odb,Step-1,Increment      1: Step Time =    1.000,"P-7-1",           738,       179.608,       25.9303,            0.,NA,NA,"",   2.56669E+06,   2.55990E+06,   2.55990E+06
C:/temp/Job-7.odb,Step-1,Increment      1: Step Time =    1.000,"P-7-1",           739,       25.0134,       179.816,            0.,NA,NA,"",   2.41286E+06,   2.47222E+06,   2.47222E+06
C:/temp/Job-7.odb,Step-1,Increment      1: Step Time =    1.000,"P-7-1",           740,       21.2708,       175.118,            0.,NA,NA,"",   981.311E+03,   572.116E+03,   572.116E+03
C:/temp/Job-7.odb,Step-1,Increment      1: Step Time =    1.000,"P-7-1",           741,       38.0544,       12.1258,            0.,NA,NA,"",   7.02393E+06,   6.86983E+06,   6.86983E+06
C:/temp/Job-7.odb,Step-1,Increment      1: Step Time =    1.000,"P-7-1",           742,       30.7075,       22.8534,            0.,NA,NA,"",   1.11050E+06,  -232.388E+03,  -232.388E+03
C:/temp/Job-7.odb,Step-1,Increment      1: Step Time =    1.000,"P-7-1",           743,       18.0764,       152.185,            0.,NA,NA,"",   4.06718E+06,  -4.00540E+06,  -4.00540E+06
C:/temp/Job-7.odb,Step-1,Increment      1: Step Time =    1.000,"P-7-1",           744,       175.880,       161.391,            0.,NA,NA,"",   4.31591E+06,   4.47662E+06,   4.47662E+06
C:/temp/Job-7.odb,Step-1,Increment      1: Step Time =    1.000,"P-7-1",           745,       179.949,       15.1915,            0.,NA,NA,"",   2.24372E+06,   1.76176E+06,   1.76176E+06
C:/temp/Job-7.odb,Step-1,Increment      1: Step Time =    1.000,"P-7-1",           746,       15.9358,       19.5009,            0.,NA,NA,"",   3.32779E+06,   3.56703E+06,   3.56703E+06
C:/temp/Job-7.odb,Step-1,Increment      1: Step Time =    1.000,"P-7-1",           747,       24.8183,       17.2588,            0.,NA,NA,"",   4.05039E+06,   4.08298E+06,   4.08298E+06
C:/temp/Job-7.odb,Step-1,Increment      1: Step Time =    1.000,"P-7-1",           748,       184.837,       179.060,            0.,NA,NA,"",   2.26031E+06,   1.83214E+06,   1.83214E+06
C:/temp/Job-7.odb,Step-1,Increment      1: Step Time =    1.000,"P-7-1",           749,       179.639,       184.394,            0.,NA,NA,"",   2.30254E+06,   1.80757E+06,   1.80757E+06
C:/temp/Job-7.odb,Step-1,Increment      1: Step Time =    1.000,"P-7-1",           750,       19.2046,       183.983,            0.,NA,NA,"",   5.09208E+06,   5.22162E+06,   5.22162E+06
C:/temp/Job-7.odb,Step-1,Increment      1: Step Time =    1.000,"P-7-1",           751,       14.6992,       43.1934,            0.,NA,NA,"",   3.56694E+06,  -3.38480E+06,  -3.38480E+06
C:/temp/Job-7.odb,Step-1,Increment      1: Step Time =    1.000,"P-7-1",           752,       155.868,       18.3045,            0.,NA,NA,"",   6.23427E+06,   6.41106E+06,   6.41106E+06
C:/temp/Job-7.odb,Step-1,Increment      1: Step Time =    1.000,"P-7-1",           753,       153.844,       15.7862,            0.,NA,NA,"",   5.79204E+06,   5.90317E+06,   5.90317E+06
C:/temp/Job-7.odb,Step-1,Increment      1: Step Time =    1.000,"P-7-1",           754,       19.9837,       13.7299,            0.,NA,NA,"",   6.33578E+06,   6.44162E+06,   6.44162E+06
C:/temp/Job-7.odb,Step-1,Increment      1: Step Time =    1.000,"P-7-1",           755,       15.1484,       180.937,            0.,NA,NA,"",   3.58872E+06,   3.83108E+06,   3.83108E+06
C:/temp/Job-7.odb,Step-1,Increment      1: Step Time =    1.000,"P-7-1",           756,       184.010,       18.3069,            0.,NA,NA,"",   2.24215E+06,   1.76054E+06,   1.76054E+06
C:/temp/Job-7.odb,Step-1,Increment      1: Step Time =    1.000,"P-7-1",           757,       18.4121,       48.1417,            0.,NA,NA,"",   4.08565E+06,  -4.03875E+06,  -4.03875E+06
C:/temp/Job-7.odb,Step-1,Increment      1: Step Time =    1.000,"P-7-1",           758,       15.1769,       14.4104,            0.,NA,NA,"",   5.98580E+06,   6.17678E+06,   6.17678E+06
C:/temp/Job-7.odb,Step-1,Increment      1: Step Time =    1.000,"P-7-1",           759,       184.865,       14.4423,            0.,NA,NA,"",   2.13324E+06,   1.52473E+06,   1.52473E+06
C:/temp/Job-7.odb,Step-1,Increment      1: Step Time =    1.000,"P-7-1",           760,       14.5143,       185.017,            0.,NA,NA,"",   5.75052E+06,   5.95586E+06,   5.95586E+06
C:/temp/Job-7.odb,Step-1,Increment      1: Step Time =    1.000,"P-7-1",           761,       184.729,       184.348,            0.,NA,NA,"",   2.18043E+06,   1.61299E+06,   1.61299E+06
C:/temp/Job-7.odb,Step-1,Increment      1: Step Time =    1.000,"P-7-1",           762,       20.4106,       17.6598,            0.,NA,NA,"",   4.10793E+06,   4.26849E+06,   4.26849E+06
C:/temp/Job-7.odb,Step-1,Increment      1: Step Time =    1.000,"P-7-1",           763,       14.7939,       46.8580,            0.,NA,NA,"",   3.67965E+06,  -3.55938E+06,  -3.55938E+06
C:/temp/Job-7.odb,Step-1,Increment      1: Step Time =    1.000,"P-7-1",           764,       10.0925,       14.7627,            0.,NA,NA,"",   5.62857E+06,   5.95915E+06,   5.95915E+06
C:/temp/Job-7.odb,Step-1,Increment      1: Step Time =    1.000,"P-7-1",           765,       184.862,       9.79316,            0.,NA,NA,"",   1.75953E+06,   1.15050E+06,   1.15050E+06
C:/temp/Job-7.odb,Step-1,Increment      1: Step Time =    1.000,"P-7-1",           766,       14.7847,       189.933,            0.,NA,NA,"",   8.18541E+06,   8.28084E+06,   8.28084E+06
C:/temp/Job-7.odb,Step-1,Increment      1: Step Time =    1.000,"P-7-1",           767,       189.909,       184.591,            0.,NA,NA,"",   2.02664E+06,   1.36574E+06,   1.36574E+06
C:/temp/Job-7.odb,Step-1,Increment      1: Step Time =    1.000,"P-7-1",           768,       154.288,       8.19828,            0.,NA,NA,"",   2.87734E+06,  -505.723E+03,  -505.723E+03
C:/temp/Job-7.odb,Step-1,Increment      1: Step Time =    1.000,"P-7-1",           769,       9.83063,       44.1960,            0.,NA,NA,"",   3.04700E+06,  -2.86767E+06,  -2.86767E+06
C:/temp/Job-7.odb,Step-1,Increment      1: Step Time =    1.000,"P-7-1",           770,       189.688,       14.9654,            0.,NA,NA,"",   1.99052E+06,   1.33399E+06,   1.33399E+06
C:/temp/Job-7.odb,Step-1,Increment      1: Step Time =    1.000,"P-7-1",           771,       184.841,       189.662,            0.,NA,NA,"",   1.80499E+06,   733.003E+03,   733.003E+03
C:/temp/Job-7.odb,Step-1,Increment      1: Step Time =    1.000,"P-7-1",           772,       14.9521,       9.59719,            0.,NA,NA,"",   8.46984E+06,   8.56797E+06,   8.56797E+06
C:/temp/Job-7.odb,Step-1,Increment      1: Step Time =    1.000,"P-7-1",           773,       9.85968,       184.785,            0.,NA,NA,"",   5.48822E+06,   5.82422E+06,   5.82422E+06
C:/temp/Job-7.odb,Step-1,Increment      1: Step Time =    1.000,"P-7-1",           774,       25.6069,       159.173,            0.,NA,NA,"",   5.48690E+06,  -5.50810E+06,  -5.50810E+06
C:/temp/Job-7.odb,Step-1,Increment      1: Step Time =    1.000,"P-7-1",           775,       36.1468,       180.887,            0.,NA,NA,"",   1.47296E+06,   470.780E+03,   470.780E+03
C:/temp/Job-7.odb,Step-1,Increment      1: Step Time =    1.000,"P-7-1",           776,       185.924,       45.7147,            0.,NA,NA,"",   3.40681E+06,   3.13234E+06,   3.13234E+06
C:/temp/Job-7.odb,Step-1,Increment      1: Step Time =    1.000,"P-7-1",           777,       22.6543,       36.7493,            0.,NA,NA,"",   4.02812E+06,  -3.90244E+06,  -3.90244E+06
C:/temp/Job-7.odb,Step-1,Increment      1: Step Time =    1.000,"P-7-1",           778,       176.568,       34.5862,            0.,NA,NA,"",   3.72822E+06,   3.91799E+06,   3.91799E+06
C:/temp/Job-7.odb,Step-1,Increment      1: Step Time =    1.000,"P-7-1",           779,       143.483,       12.8205,            0.,NA,NA,"",   7.49948E+06,   7.62951E+06,   7.62951E+06
C:/temp/Job-7.odb,Step-1,Increment      1: Step Time =    1.000,"P-7-1",           780,       130.627,       186.255,            0.,NA,NA,"",   21.2958E+06,   21.4994E+06,   21.4994E+06
C:/temp/Job-7.odb,Step-1,Increment      1: Step Time =    1.000,"P-7-1",           781,       8.89469,       144.056,            0.,NA,NA,"",   2.74951E+06,  -2.72692E+06,  -2.72692E+06
C:/temp/Job-7.odb,Step-1,Increment      1: Step Time =    1.000,"P-7-1",           782,       9.21550,       55.1506,            0.,NA,NA,"",   2.82611E+06,  -2.80043E+06,  -2.80043E+06
C:/temp/Job-7.odb,Step-1,Increment      1: Step Time =    1.000,"P-7-1",           783,       191.571,       141.636,            0.,NA,NA,"",   4.31655E+06,   3.74575E+06,   3.74575E+06
C:/temp/Job-7.odb,Step-1,Increment      1: Step Time =    1.000,"P-7-1",           784,       21.5767,       149.136,            0.,NA,NA,"",   4.50712E+06,  -4.52566E+06,  -4.52566E+06
C:/temp/Job-7.odb,Step-1,Increment      1: Step Time =    1.000,"P-7-1",           785,       24.8996,       9.13291,            0.,NA,NA,"",   9.19495E+06,   9.18313E+06,   9.18313E+06
C:/temp/Job-7.odb,Step-1,Increment      1: Step Time =    1.000,"P-7-1",           786,       8.78981,       174.599,            0.,NA,NA,"",   1.35978E+06,   1.55669E+06,   1.55669E+06
C:/temp/Job-7.odb,Step-1,Increment      1: Step Time =    1.000,"P-7-1",           787,       190.015,       25.2806,            0.,NA,NA,"",   2.16022E+06,   1.51426E+06,   1.51426E+06
C:/temp/Job-7.odb,Step-1,Increment      1: Step Time =    1.000,"P-7-1",           788,       175.095,       190.029,            0.,NA,NA,"",   2.04564E+06,   125.863E+03,   125.863E+03
C:/temp/Job-7.odb,Step-1,Increment      1: Step Time =    1.000,"P-7-1",           789,       166.903,       31.0505,            0.,NA,NA,"",   5.94147E+06,   6.19849E+06,   6.19849E+06
C:/temp/Job-7.odb,Step-1,Increment      1: Step Time =    1.000,"P-7-1",           790,       50.0844,       10.3106,            0.,NA,NA,"",   7.70211E+06,   7.37436E+06,   7.37436E+06
C:/temp/Job-7.odb,Step-1,Increment      1: Step Time =    1.000,"P-7-1",           791,       191.296,       49.5144,            0.,NA,NA,"",   3.15444E+06,   2.69409E+06,   2.69409E+06
C:/temp/Job-7.odb,Step-1,Increment      1: Step Time =    1.000,"P-7-1",           792,       25.4844,       33.9696,            0.,NA,NA,"",   3.95632E+06,  -3.90112E+06,  -3.90112E+06
C:/temp/Job-7.odb,Step-1,Increment      1: Step Time =    1.000,"P-7-1",           793,       190.729,       58.0476,            0.,NA,NA,"",   4.31198E+06,   3.75453E+06,   3.75453E+06
C:/temp/Job-7.odb,Step-1,Increment      1: Step Time =    1.000,"P-7-1",           794,       169.793,       4.65256,            0.,NA,NA,"",   2.47899E+06,  -2.23769E+06,  -2.23769E+06
C:/temp/Job-7.odb,Step-1,Increment      1: Step Time =    1.000,"P-7-1",           795,       164.735,       4.50622,            0.,NA,NA,"",   3.15401E+06,  -2.97885E+06,  -2.97885E+06
C:/temp/Job-7.odb,Step-1,Increment      1: Step Time =    1.000,"P-7-1",           796,       195.334,       169.922,            0.,NA,NA,"",   2.62190E+06,  -1.14900E+06,  -1.14900E+06
C:/temp/Job-7.odb,Step-1,Increment      1: Step Time =    1.000,"P-7-1",           797,       195.252,       164.871,            0.,NA,NA,"",   2.58619E+06,  -436.971E+03,  -436.971E+03
C:/temp/Job-7.odb,Step-1,Increment      1: Step Time =    1.000,"P-7-1",           798,       4.83203,       29.7759,            0.,NA,NA,"",   987.460E+03,   310.392E+03,   310.392E+03
C:/temp/Job-7.odb,Step-1,Increment      1: Step Time =    1.000,"P-7-1",           799,       4.77780,       34.7522,            0.,NA,NA,"",   1.30980E+06,  -1.08087E+06,  -1.08087E+06
C:/temp/Job-7.odb,Step-1,Increment      1: Step Time =    1.000,"P-7-1",           800,       126.123,       188.008,            0.,NA,NA,"",   21.6121E+06,   21.8699E+06,   21.8699E+06
C:/temp/Job-7.odb,Step-1,Increment      1: Step Time =    1.000,"P-7-1",           801,       12.4299,       73.2044,            0.,NA,NA,"",   1.33398E+06,  -1.34800E+06,  -1.34800E+06
C:/temp/Job-7.odb,Step-1,Increment      1: Step Time =    1.000,"P-7-1",           802,       190.336,       83.7877,            0.,NA,NA,"",   9.14217E+06,  -6.70034E+06,  -6.70034E+06
C:/temp/Job-7.odb,Step-1,Increment      1: Step Time =    1.000,"P-7-1",           803,       67.3465,       192.009,            0.,NA,NA,"",   8.82497E+06,   8.16331E+06,   8.16331E+06
C:/temp/Job-7.odb,Step-1,Increment      1: Step Time =    1.000,"P-7-1",           804,       160.086,       189.687,            0.,NA,NA,"",   2.77108E+06,   256.255E+03,   256.255E+03
C:/temp/Job-7.odb,Step-1,Increment      1: Step Time =    1.000,"P-7-1",           805,       124.742,       192.775,            0.,NA,NA,"",   5.63188E+06,   4.40745E+06,   4.40745E+06
C:/temp/Job-7.odb,Step-1,Increment      1: Step Time =    1.000,"P-7-1",           806,       56.2237,       13.6810,            0.,NA,NA,"",   4.61397E+06,  -218.663E+03,  -218.663E+03
C:/temp/Job-7.odb,Step-1,Increment      1: Step Time =    1.000,"P-7-1",           807,       185.218,       56.4068,            0.,NA,NA,"",   4.05090E+06,   3.56217E+06,   3.56217E+06
C:/temp/Job-7.odb,Step-1,Increment      1: Step Time =    1.000,"P-7-1",           808,       44.2799,       11.3783,            0.,NA,NA,"",   7.16940E+06,   6.94404E+06,   6.94404E+06
C:/temp/Job-7.odb,Step-1,Increment      1: Step Time =    1.000,"P-7-1",           809,       190.726,       45.0353,            0.,NA,NA,"",   2.73452E+06,   2.28528E+06,   2.28528E+06
C:/temp/Job-7.odb,Step-1,Increment      1: Step Time =    1.000,"P-7-1",           810,       8.56352,       155.921,            0.,NA,NA,"",   2.90815E+06,  -2.74194E+06,  -2.74194E+06
C:/temp/Job-7.odb,Step-1,Increment      1: Step Time =    1.000,"P-7-1",           811,       188.395,       138.320,            0.,NA,NA,"",   4.59831E+06,   3.66293E+06,   3.66293E+06
C:/temp/Job-7.odb,Step-1,Increment      1: Step Time =    1.000,"P-7-1",           812,       59.9469,       8.23534,            0.,NA,NA,"",   9.63616E+06,   9.26962E+06,   9.26962E+06
C:/temp/Job-7.odb,Step-1,Increment      1: Step Time =    1.000,"P-7-1",           813,       183.205,       152.476,            0.,NA,NA,"",   3.85654E+06,   3.67632E+06,   3.67632E+06
C:/temp/Job-7.odb,Step-1,Increment      1: Step Time =    1.000,"P-7-1",           814,       40.9823,       181.200,            0.,NA,NA,"",   2.35258E+06,  -536.000E+03,  -536.000E+03
C:/temp/Job-7.odb,Step-1,Increment      1: Step Time =    1.000,"P-7-1",           815,       37.7774,       184.029,            0.,NA,NA,"",   3.52692E+06,   2.95871E+06,   2.95871E+06
C:/temp/Job-7.odb,Step-1,Increment      1: Step Time =    1.000,"P-7-1",           816,       146.986,       15.7048,            0.,NA,NA,"",   8.71797E+06,   8.94731E+06,   8.94731E+06
C:/temp/Job-7.odb,Step-1,Increment      1: Step Time =    1.000,"P-7-1",           817,       154.444,       21.0984,            0.,NA,NA,"",   8.37020E+06,   8.62112E+06,   8.62112E+06
C:/temp/Job-7.odb,Step-1,Increment      1: Step Time =    1.000,"P-7-1",           818,       191.544,       155.536,            0.,NA,NA,"",   2.53874E+06,   2.05126E+06,   2.05126E+06
C:/temp/Job-7.odb,Step-1,Increment      1: Step Time =    1.000,"P-7-1",           819,       185.116,       161.435,            0.,NA,NA,"",   2.71061E+06,   2.61702E+06,   2.61702E+06
C:/temp/Job-7.odb,Step-1,Increment      1: Step Time =    1.000,"P-7-1",           820,       14.4472,       38.9126,            0.,NA,NA,"",   3.14857E+06,  -2.86971E+06,  -2.86971E+06
C:/temp/Job-7.odb,Step-1,Increment      1: Step Time =    1.000,"P-7-1",           821,       158.264,       13.2987,            0.,NA,NA,"",   3.46465E+06,   3.14325E+06,   3.14325E+06
C:/temp/Job-7.odb,Step-1,Increment      1: Step Time =    1.000,"P-7-1",           822,       145.061,       188.820,            0.,NA,NA,"",   5.24865E+06,   5.01396E+06,   5.01396E+06
C:/temp/Job-7.odb,Step-1,Increment      1: Step Time =    1.000,"P-7-1",           823,       150.827,       12.9367,            0.,NA,NA,"",   4.74687E+06,   4.65821E+06,   4.65821E+06
C:/temp/Job-7.odb,Step-1,Increment      1: Step Time =    1.000,"P-7-1",           824,       188.596,       54.5724,            0.,NA,NA,"",   4.08934E+06,   3.51948E+06,   3.51948E+06
C:/temp/Job-7.odb,Step-1,Increment      1: Step Time =    1.000,"P-7-1",           825,       33.0747,       180.625,            0.,NA,NA,"",   1.83487E+06,   1.36495E+06,   1.36495E+06
C:/temp/Job-7.odb,Step-1,Increment      1: Step Time =    1.000,"P-7-1",           826,       17.1653,       176.486,            0.,NA,NA,"",   1.53892E+06,   1.69852E+06,   1.69852E+06
C:/temp/Job-7.odb,Step-1,Increment      1: Step Time =    1.000,"P-7-1",           827,       181.973,       22.1029,            0.,NA,NA,"",   2.30125E+06,   2.05810E+06,   2.05810E+06
C:/temp/Job-7.odb,Step-1,Increment      1: Step Time =    1.000,"P-7-1",           828,       12.1630,       157.702,            0.,NA,NA,"",   3.15178E+06,  -2.89778E+06,  -2.89778E+06
C:/temp/Job-7.odb,Step-1,Increment      1: Step Time =    1.000,"P-7-1",           829,       154.417,       11.2397,            0.,NA,NA,"",   3.12525E+06,   2.62306E+06,   2.62306E+06
C:/temp/Job-7.odb,Step-1,Increment      1: Step Time =    1.000,"P-7-1",           830,       11.3102,       161.066,            0.,NA,NA,"",   2.65448E+06,  -2.33936E+06,  -2.33936E+06
C:/temp/Job-7.odb,Step-1,Increment      1: Step Time =    1.000,"P-7-1",           831,       187.118,       50.3730,            0.,NA,NA,"",   3.78171E+06,   3.34966E+06,   3.34966E+06
C:/temp/Job-7.odb,Step-1,Increment      1: Step Time =    1.000,"P-7-1",           832,       170.564,       182.328,            0.,NA,NA,"",   2.82612E+06,   2.69164E+06,   2.69164E+06
C:/temp/Job-7.odb,Step-1,Increment      1: Step Time =    1.000,"P-7-1",           833,       180.180,       36.0186,            0.,NA,NA,"",   3.19432E+06,   3.28910E+06,   3.28910E+06
C:/temp/Job-7.odb,Step-1,Increment      1: Step Time =    1.000,"P-7-1",           834,       176.435,       28.9185,            0.,NA,NA,"",   3.11142E+06,   3.27486E+06,   3.27486E+06
C:/temp/Job-7.odb,Step-1,Increment      1: Step Time =    1.000,"P-7-1",           835,       14.1370,       160.551,            0.,NA,NA,"",   3.02887E+06,  -2.71231E+06,  -2.71231E+06
C:/temp/Job-7.odb,Step-1,Increment      1: Step Time =    1.000,"P-7-1",           836,       14.6626,       163.838,            0.,NA,NA,"",   2.62670E+06,  -2.26491E+06,  -2.26491E+06
C:/temp/Job-7.odb,Step-1,Increment      1: Step Time =    1.000,"P-7-1",           837,       173.850,       180.703,            0.,NA,NA,"",   2.77682E+06,   2.65162E+06,   2.65162E+06
